LAMMPS (29 Oct 2020)
###################### polyelectrolyte complexation ######################
clear

#Initialization
#------------------------------------
units				lj
dimension			3
atom_style			full
boundary			p p p

#Atom Definition
#-------------------------------------
read_data			data.complexation
Reading data file ...
  orthogonal box = (-80.000000 -80.000000 -80.000000) to (80.000000 80.000000 80.000000)
  1 by 1 by 1 MPI processor grid
  reading atoms ...
  40 atoms
  scanning bonds ...
  1 = max bonds/atom
  reading bonds ...
  39 bonds
Finding 1-2 1-3 1-4 neighbors ...
  special bond factors lj:    0.0      0.0      0.0     
  special bond factors coul:  0.0      0.0      0.0     
     2 = max # of 1-2 neighbors
     2 = max # of 1-3 neighbors
     4 = max # of 1-4 neighbors
     6 = max # of special neighbors
  special bonds CPU = 0.000 seconds
  read_data CPU = 0.002 seconds

#Force definition
#----------------------------------------------
#Bond definition
bond_style			harmonic
bond_coeff			1 5000 1
#Pair definition
special_bonds	lj 0 1 1
Finding 1-2 1-3 1-4 neighbors ...
  special bond factors lj:    0.0      1.0      1.0     
  special bond factors coul:  0.0      0.0      0.0     
     2 = max # of 1-2 neighbors
     2 = max # of 1-3 neighbors
     4 = max # of 1-4 neighbors
     6 = max # of special neighbors
  special bonds CPU = 0.000 seconds
pair_style		 lj/cut 1.12
pair_modify 		 shift yes
pair_coeff	1 1 1 1 1.12

#Timestep etc
#--------------------------------------------
timestep		1e-05
run_style		verlet
velocity		all	create	1	11

#Fix
#---------------------------------------
group polymers type 1
40 atoms in group polymers
fix 1 all nve
fix 2 all langevin 1	1	10	11
fix 3 polymers recenter INIT INIT INIT units box

#Dump
#------------------------------------------------
compute  1 all gyration
variable  myRg2 equal c_1
variable  i equal step
fix  mythermofile all print 5000 "$i ${myRg2}" file radius_of_gyration.dat screen no

thermo_style		 custom step temp press pe evdwl ecoul ebond ke etotal enthalpy
thermo 	5000
dump	3 all custom 5000 dump.lammpstrj id mol type xu yu zu
run		20000000
Neighbor list info ...
  update every 1 steps, delay 10 steps, check yes
  max neighbors/atom: 2000, page size: 100000
  master list distance cutoff = 1.42
  ghost atom cutoff = 1.42
  binsize = 0.71, bins = 226 226 226
  1 neighbor lists, perpetual/occasional/extra = 1 0 0
  (1) pair lj/cut, perpetual
      attributes: half, newton on
      pair build: half/bin/newton
      stencil: half/bin/3d/newton
      bin: standard
WARNING: Communication cutoff 1.4200000000000002 is shorter than a bond length based estimate of 1.8. This may lead to errors. (../comm.cpp:667)
Per MPI rank memory allocation (min/avg/max) = 54.71 | 54.71 | 54.71 Mbytes
Step Temp Press PotEng E_vdwl E_coul E_bond KinEng TotEng Enthalpy 
       0            1 9.5214844e-06            0            0            0            0       1.4625       1.4625       2.4375 
    5000   0.85500325 -0.00011689991   0.21636903            0            0   0.21636903    1.2504423    1.4668113   -10.503739 
   10000   0.53921722  -0.00028173   0.68337747            0            0   0.68337747   0.78860518    1.4719826   -27.377169 
   15000   0.75195611 -0.00015432049   0.38359062            0            0   0.38359062    1.0997358    1.4833264   -14.319092 
   20000   0.79369903 1.6759198e-05   0.28187087            0            0   0.28187087    1.1607848    1.4426557    3.1587976 
   25000   0.80961816 -8.3912979e-05   0.23680311            0            0   0.23680311    1.1840666    1.4208697   -7.1718194 
   30000   0.74928241 -0.00015174581   0.35636951            0            0   0.35636951    1.0958255     1.452195   -14.086575 
   35000   0.84762101 2.7761442e-05   0.21649821            0            0   0.21649821    1.2396457    1.4561439    4.2989156 
   40000    0.7528509 0.00012902757   0.33851749            0            0   0.33851749    1.1010444    1.4395619    14.651985 
   45000   0.79574732 -4.4247134e-05   0.29800344            0            0   0.29800344    1.1637805    1.4617839   -3.0691226 
   50000   0.75752215 -0.00012096758   0.33078911            0            0   0.33078911    1.1078761    1.4386653   -10.948415 
   55000   0.88785543 6.3064736e-05   0.18166861            0            0   0.18166861    1.2984886    1.4801572    7.9379861 
   60000   0.71921467 8.3273501e-05   0.40999955            0            0   0.40999955    1.0518515     1.461851    9.9890575 
   65000   0.81035547 -2.4715227e-05   0.25632685            0            0   0.25632685    1.1851449    1.4414717   -1.0893675 
   70000   0.73885641 -9.4647373e-05   0.35644515            0            0   0.35644515    1.0805775    1.4370226   -8.2548684 
   75000   0.71964756 7.4304177e-05   0.38037274            0            0   0.38037274    1.0524846    1.4328573     9.041605 
   80000   0.80623777 6.5419418e-05   0.29131173            0            0   0.29131173    1.1791227    1.4704345    8.1693829 
   85000   0.68602118 -0.00016758557   0.49273142            0            0   0.49273142     1.003306    1.4960374   -15.664725 
   90000   0.90938086 8.1154169e-05   0.15826216            0            0   0.15826216    1.3299695    1.4882317    9.7984185 
   95000   0.79925211 9.7185993e-05   0.31531825            0            0   0.31531825    1.1689062    1.4842245     11.43607 
  100000   0.81047154 -4.9795519e-05   0.30188959            0            0   0.30188959    1.1853146    1.4872042   -3.6118569 
  105000   0.88344942 -2.0117054e-05   0.20015544            0            0   0.20015544    1.2920448    1.4922002  -0.56778611 
  110000   0.83277581 6.9064183e-05   0.30811491            0            0   0.30811491    1.2179346    1.5260495    8.5982218 
  115000   0.86403333 5.0351268e-05   0.24595761            0            0   0.24595761    1.2636487    1.5096064    6.6655762 
  120000   0.78383982 -0.00015252409   0.36688276            0            0   0.36688276    1.1463657    1.5132485   -14.105219 
  125000   0.78603064 0.00012555277   0.40480818            0            0   0.40480818    1.1495698     1.554378    14.410982 
  130000   0.88598389 8.3337644e-06   0.28189124            0            0   0.28189124    1.2957514    1.5776427    2.4310202 
  135000   0.79131177 -0.00010463272    0.3856066            0            0    0.3856066    1.1572935    1.5429001   -9.1714906 
  140000   0.88784105 3.6844521e-05   0.26133521            0            0   0.26133521    1.2984675    1.5598027    5.3326817 
  145000   0.85910916 4.9876866e-05   0.25544999            0            0   0.25544999    1.2564471    1.5118971    6.6192882 
  150000   0.70132258 -9.426725e-05   0.51576382            0            0   0.51576382    1.0256843    1.5414481   -8.1115183 
  155000   0.78370055 2.4680673e-05   0.38622322 0.0019656708            0   0.38425755    1.1461621    1.5323853    4.0596862 
  160000   0.80655803 0.00011016295   0.36804281 0.0015211338            0   0.36652168    1.1795911    1.5476339     12.82832 
  165000   0.76436033 -0.00010165128   0.46359373 0.0033676924            0   0.46022603     1.117877    1.5814707   -8.8276206 
  170000   0.88330281 5.6072966e-05    0.3100813 0.00086488791            0   0.30921641    1.2918304    1.6019117    7.3437833 
  175000   0.85036898 7.0570814e-05   0.36938111            0            0   0.36938111    1.2436646    1.6130457    8.8394971 
  180000     0.933978 -6.8004845e-05   0.25942193            0            0   0.25942193    1.3659428    1.6253648   -5.3383314 
  185000   0.89442406 -3.8612514e-05   0.31712906            0            0   0.31712906    1.3080952    1.6252243   -2.3286972 
  190000   0.89555895 7.4957014e-05   0.30098514            0            0   0.30098514     1.309755    1.6107401    9.2863383 
  195000   0.85514659 -1.6963653e-05   0.35533166            0            0   0.35533166    1.2506519    1.6059836  -0.13109448 
  200000   0.90327138 -1.9113659e-05   0.31140948            0            0   0.31140948    1.3210344    1.6324439  -0.32479485 
  205000   0.78272004 9.6686221e-05   0.45386061            0            0   0.45386061    1.1447281    1.5985887    11.499258 
  210000   0.86103873 -2.5336085e-06   0.35828123            0            0   0.35828123    1.2592691    1.6175504    1.3581089 
  215000   0.94061542 -2.3628412e-05   0.29304482            0            0   0.29304482    1.3756501    1.6686949  -0.75085446 
  220000   0.85070271 8.0525298e-05   0.41300543            0            0   0.41300543    1.2441527    1.6571581    9.9029487 
  225000   0.85241318 -6.8994723e-05   0.41191972            0            0   0.41191972    1.2466543     1.658574   -5.4064857 
  230000   0.95016968 4.7379415e-05   0.31562904            0            0   0.31562904    1.3896232    1.7052522    6.5569043 
  235000   0.89051037 5.6956611e-05   0.39117292 0.00048412508            0   0.39068879    1.3023714    1.6935443    7.5259013 
  240000    0.8604543 -4.7916263e-05   0.45299275 0.0077026334            0   0.44529012    1.2584144    1.7114072   -3.1952182 
  245000   0.87250527 -4.1647286e-05    0.4106148  0.016819753            0   0.39379505     1.276039    1.6866538   -2.5780284 
  250000   0.85311624 4.4807206e-05   0.44776655  0.011376198            0   0.43639035    1.2476825     1.695449    6.2837069 
  255000   0.80613722 -8.3948547e-05   0.53849098 0.0028400766            0    0.5356509    1.1789757    1.7174667   -6.8788645 
  260000   0.85587537 9.9912914e-05     0.467912            0            0     0.467912    1.2517177    1.7196297    11.950712 
  265000   0.85700876 -0.00011986899   0.44688708  0.001741864            0   0.44514522    1.2533753    1.7002624   -10.574323 
  270000   0.82747523 0.00011374743   0.48887918 0.0025496753            0   0.48632951    1.2101825    1.6990617    13.346798 
  275000   0.84525371 -5.0148648e-05   0.48222107  0.002140159            0   0.48008091    1.2361836    1.7184046   -3.4168169 
  280000   0.93313571 6.3552347e-05   0.37007441 0.00023401009            0    0.3698404     1.364711    1.7347854    8.2425457 
  285000   0.95183558 3.1268408e-05    0.3569335 0.0021869748            0   0.35474652    1.3920595     1.748993     4.950878 
  290000   0.87534139 -6.7089619e-05   0.47224192 0.0042496993            0   0.46799222    1.2801868    1.7524287   -5.1175483 
  295000   0.96235653 0.00010202676   0.37690399 0.0022305587            0   0.37467343    1.4074464    1.7843504    12.231891 
  300000   0.91510508 -0.00011359293   0.42867078 0.00022351546            0   0.42844726    1.3383412     1.767012   -9.8649037 
  305000   0.89839461 7.1128067e-05    0.4294911  0.010391248            0   0.41909985    1.3139021    1.7433932    9.0269073 
  310000    0.8097976 3.3893964e-05   0.55379394  0.024310157            0   0.52948378     1.184329    1.7381229    5.2088648 
  315000   0.89549226 -4.5893563e-05   0.42169702 0.0073022742            0   0.41439475    1.3096574    1.7313545   -2.9681464 
  320000   0.91568931 3.3572879e-05   0.40338493  0.043001691            0   0.36038324    1.3391956    1.7425805    5.1804433 
  325000   0.91310456 5.4222733e-06   0.38481579  0.028020319            0   0.35679547    1.3354154    1.7202312     2.275472 
  330000   0.95387388 6.3925214e-06   0.32276319 5.5295045e-05            0   0.32270789    1.3950406    1.7178037    2.3723979 
  335000   0.88325538 4.5826381e-05   0.47672022            0            0   0.47672022     1.291761    1.7684812    6.4611026 
  340000   0.85194087 -9.8407338e-05   0.50886318            0            0   0.50886318    1.2459635    1.7548267   -8.3220847 
  345000   0.99216183 8.4721136e-05   0.34719787            0            0   0.34719787    1.4510367    1.7982345    10.473679 
  350000    1.0735728 -5.0978305e-05   0.28584136 0.0026624804            0   0.28317888    1.5701002    1.8559415   -3.3642369 
  355000   0.91090464 -2.8585211e-05   0.51181206 0.0069347324            0   0.50487733     1.332198    1.8440101   -1.0831155 
  360000   0.93843585 5.9709434e-05    0.4592308 0.0099887754            0   0.44924203    1.3724624    1.8316932    7.9459393 
  365000    0.9426636 -9.2521661e-05    0.4463826 0.0010583691            0   0.44532423    1.3786455    1.8250281   -7.6491899 
  370000   0.95542711 4.0654507e-05   0.44329892            0            0   0.44329892    1.3973122    1.8406111    6.0036326 
  375000   0.96844395 -2.8386087e-05   0.46530932            0            0   0.46530932    1.4163493    1.8816586   -1.0250767 
  380000    0.9319565 -0.00011235564   0.53256076            0            0   0.53256076    1.3629864    1.8955471   -9.6096705 
  385000   0.97748138 0.00013065284   0.43084024            0            0   0.43084024    1.4295665    1.8604068    15.239257 
  390000    1.0598385 -9.3694633e-05   0.32871518 6.6713263e-05            0   0.32864847    1.5500138     1.878729   -7.7156014 
  395000    0.9917251 -4.5626113e-06   0.36656132            0            0   0.36656132     1.450398    1.8169593    1.3497479 
  400000   0.94018402 0.00010459126   0.43777184            0            0   0.43777184    1.3750191     1.812791    12.522936 
  405000   0.86219859 -0.00013130076   0.53791735            0            0   0.53791735    1.2609654    1.7988828   -11.646315 
  410000   0.85977693 0.00012755198   0.51194542            0            0   0.51194542    1.2574238    1.7693692    14.830692 
  415000    1.0018747 -7.4958783e-05   0.29398772            0            0   0.29398772    1.4652418    1.7592295   -5.9165499 
  420000    1.0151697 -2.8264877e-05   0.29842702            0            0   0.29842702    1.4846856    1.7831126   -1.1112107 
  425000    0.9059386 8.995519e-05   0.46628549 0.0028664279            0   0.46341906    1.3249352    1.7912207    11.002632 
  430000   0.92038942 -0.00011399958   0.44554467  0.035584885            0   0.40995978    1.3460695    1.7916142    -9.881943 
  435000   0.83394763 9.647709e-05   0.59417935  0.032054211            0   0.56212514    1.2196484    1.8138278    11.693082 
  440000   0.83998353 -8.3356397e-05   0.56201289 0.0042715085            0   0.55774138    1.2284759    1.7904888   -6.7452062 
  445000   0.90528527 1.6592258e-05   0.46295459 0.0093119446            0   0.45364264    1.3239797    1.7869343    3.4859816 
  450000    1.0025764 -3.784646e-05   0.32849584 0.0065956432            0    0.3219002    1.4662679    1.7947638   -2.0807137 
  455000   0.91836409 8.5731378e-06   0.43188459  0.022595231            0   0.40928935    1.3431075    1.7749921    2.6528814 
  460000    0.7794982 -1.7132187e-05   0.63689676  0.026488555            0    0.6104082    1.1400161    1.7769129   0.02257694 
  465000   0.83484882 -9.6481252e-05    0.5502585  0.021520012            0   0.52873849    1.2209664    1.7712249   -8.1084553 
  470000   0.95342429 4.8262875e-05   0.36453218  0.012052182            0      0.35248     1.394383    1.7589152    6.7010336 
  475000   0.91587173 -4.4077618e-06   0.37723736  0.051233237            0   0.32600412    1.3394624    1.7166998     1.265345 
  480000   0.86857761 -2.2090323e-05   0.45113255  0.036255908            0   0.41487665    1.2702948    1.7214273  -0.54062178 
  485000    0.7955827 0.00014430359   0.52394126 0.0072933629            0   0.51664789    1.1635397    1.6874809    16.464168 
  490000   0.84304847 -8.4600286e-05   0.42769443 0.0016749547            0   0.42601947    1.2329584    1.6606528   -7.0024164 
  495000   0.76669943 -1.7557694e-05    0.5110167 0.00088934265            0   0.51012736    1.1212979    1.6323146  -0.16559321 
  500000   0.82932022 -7.0108764e-05   0.46664247 0.0082122327            0   0.45843024    1.2128808    1.6795233   -5.4996142 
  505000   0.80969283 0.00010191691   0.48840572  0.025130283            0   0.46327544    1.1841758    1.6725815    12.108873 
  510000     0.732208 -4.1455337e-05   0.57695264  0.019886031            0   0.55706661    1.0708542    1.6478068   -2.5972196 
  515000    0.8474995 7.3984309e-05   0.44344164  0.016123399            0   0.42731825     1.239468    1.6829097     9.258903 
  520000   0.82089564 6.3145004e-05   0.46145043  0.024308906            0   0.43714152    1.2005599    1.6620103    8.1280588 
  525000   0.90999266 -4.5866852e-05   0.36068024  0.042326506            0   0.31835373    1.3308643    1.6915445   -3.0052211 
  530000    0.8862916 4.1769635e-05    0.4219974 0.0045606122            0   0.41743679    1.2962015    1.7181989    5.9954094 
  535000   0.89701855 -1.8253843e-05   0.43459863  0.006461004            0   0.42813763    1.3118896    1.7464883  -0.12270529 
  540000   0.79558337 5.4095352e-06   0.56146767  0.012750926            0   0.54871674    1.1635407    1.7250083    2.2789448 
  545000   0.90777417 3.2179575e-06   0.40180655 0.0055283649            0   0.39627819    1.3276197    1.7294263    2.0589451 
  550000   0.94081571 6.805749e-05   0.35317998 0.0035434315            0   0.34963655     1.375943     1.729123      8.69821 
  555000   0.71808745 -6.023374e-05   0.66129591  0.040567973            0   0.62072793    1.0502029    1.7114988   -4.4564362 
  560000   0.74644866 8.4289245e-05    0.6383049  0.064093034            0   0.57421187    1.0916812    1.7299861    10.361205 
  565000   0.76403674 -3.441855e-05   0.60441058 0.0060153238            0   0.59839526    1.1174037    1.7218143   -1.8026452 
  570000   0.91173816 0.00010191663   0.41336969  0.016916988            0    0.3964527    1.3334171    1.7467867     12.18305 
  575000   0.88455223 4.344695e-06   0.46231663  0.024471647            0   0.43784498    1.2936576    1.7559743     2.200871 
  580000   0.85465739 4.3514285e-06   0.54665255  0.030429893            0   0.51622265    1.2499364     1.796589    2.2421753 
  585000    1.0168843 -3.5443338e-06   0.33286164  0.050078117            0   0.28278352    1.4871933    1.8200549    1.4571151 
  590000    0.9278165 2.8392345e-05     0.435543  0.014267686            0   0.42127531    1.3569316    1.7924746    4.6998507 
  595000   0.85446655 -6.774431e-05   0.52547315  0.027197221            0   0.49827593    1.2496573    1.7751305   -5.1618869 
  600000   0.83520037 -4.4196385e-05   0.55654416 0.0050170483            0   0.55152711    1.2214805    1.7780247   -2.7476851 
  605000   0.81418032 -5.3495774e-05   0.58127143            0            0   0.58127143    1.1907387    1.7720101   -3.7059571 
  610000   0.91648331 -4.3176053e-05    0.4845826            0            0    0.4845826    1.3403568    1.8249394   -2.5962884 
  615000   0.98225969 4.179207e-05   0.40762092            0            0   0.40762092    1.4365548    1.8441757    6.1236837 
  620000   0.98772557 -2.837003e-05    0.3706835   0.00021138            0   0.37047212    1.4445486    1.8152321    -1.089859 
  625000   0.95572141 1.6663612e-05   0.43027123 0.0054079001            0   0.42486333    1.3977426    1.8280138    3.5343676 
  630000   0.98410394 -3.2596675e-06   0.39078114 0.0090722533            0   0.38170889     1.439252    1.8300332    1.4962432 
  635000   0.94836921 3.2659669e-05   0.43924431 0.0041750673            0   0.43506925      1.38699    1.8262343    5.1705844 
  640000   0.85931099 -7.7868372e-05   0.49540297 0.0060017408            0   0.48940123    1.2567423    1.7521453    -6.221576 
  645000   0.84809233 1.4036455e-05   0.52011503 0.0077314323            0   0.51238359     1.240335    1.7604501     3.197783 
  650000   0.78972527 -1.7285968e-05   0.60112065  0.003207732            0   0.59791292    1.1549732    1.7560939  -0.01398922 
  655000   0.81781628 3.7848554e-05    0.5287503  0.000267993            0    0.5284823    1.1960563    1.7248066    5.6004985 
  660000     0.838356 -2.5397469e-05   0.49422715 0.00041898325            0   0.49380816    1.2260956    1.7203228  -0.88037806 
  665000    1.0043877 7.324152e-05    0.2764522 0.0076961081            0   0.26875609     1.468917    1.7453692    9.2453009 
  670000   0.83084974 -8.23508e-05   0.52043608  0.013562109            0   0.50687397    1.2151177    1.7355538   -6.6971681 
  675000   0.86259078 -7.4080525e-06   0.46485755 0.0079469109            0   0.45691064     1.261539    1.7263966   0.96781198 
  680000   0.89081197 -0.00012663721   0.38466814  0.008587258            0   0.37608089    1.3028125    1.6874807    -11.28017 
  685000   0.97611173 6.1919591e-05   0.31381614  0.024644189            0   0.28917195    1.4275634    1.7413795    8.0819457 
  690000   0.90588535 2.2862354e-05   0.45792999  0.037661802            0   0.42026818    1.3248573    1.7827873    4.1238923 
  695000   0.92639374 2.4843701e-05   0.45378424  0.021089949            0   0.43269429    1.3548508    1.8086351      4.35263 
  700000   0.96701928 -9.3819969e-05   0.41389065  0.022741327            0   0.39114932    1.4142657    1.8281563   -7.7790085 
  705000   0.94123789 5.0901186e-05   0.43887532  0.008253239            0   0.43062208    1.3765604    1.8154357    7.0277172 
  710000   0.83970703 -4.2848905e-05   0.59177398 0.00032678961            0   0.59144719    1.2280715    1.8198455   -2.5678823 
  715000   0.87000216 4.5418598e-05   0.50848149            0            0   0.50848149    1.2723782    1.7808597    6.4317241 
  720000   0.86410663 -8.5153822e-05   0.52560327            0            0   0.52560327    1.2637559    1.7893592   -6.9303921 
  725000    0.9481937 1.6471703e-05   0.36008348            0            0   0.36008348    1.3867333    1.7468168    3.4335192 
  730000   0.93864187 6.7850809e-05   0.37351321 5.3970394e-05            0   0.37345924    1.3727637    1.7462769    8.6941998 
  735000   0.88384263 2.585425e-05   0.49851133 0.0015656655            0   0.49694566    1.2926198    1.7911312    4.4386063 
  740000   0.86409479 2.876104e-05   0.52723909 0.0041732277            0   0.52306587    1.2637386    1.7909777    4.7361083 
  745000   0.91651358 -3.882203e-05   0.49604805 0.0038420617            0   0.49220599    1.3404011    1.8364492   -2.1389267 
  750000   0.99741544 -7.2985502e-06   0.36639216  0.021088174            0   0.34530399    1.4587201    1.8251122    1.0777407 
  755000   0.93910631 0.00013264021   0.48418647  0.049776223            0   0.43441025     1.373443    1.8576294    15.439987 
  760000   0.94257242 -2.3993521e-05   0.46720723  0.018986978            0   0.44822025    1.3785122    1.8457194  -0.61121715 
  765000    1.0070526 -2.6920025e-05    0.4275634 0.0015970258            0   0.42596638    1.4728144    1.9003778  -0.85623271 
  770000   0.94214775 8.3165367e-05   0.53034453 0.00090024152            0   0.52944429    1.3778911    1.9082356    10.424369 
  775000    0.9545419 -6.1392535e-05   0.55318446 0.0018875248            0   0.55129693    1.3960175     1.949202   -4.3373936 
  780000   0.98190344 4.4680403e-05   0.50055692  0.012660701            0   0.48789622    1.4360338    1.9365907     6.511864 
  785000   0.94430154 5.0479246e-05   0.54915825  0.038852914            0   0.51030534     1.381041    1.9301993     7.099274 
  790000   0.96635799 -2.0566052e-05   0.53407228  0.011635398            0   0.52243688    1.4132986    1.9473708  -0.15859287 
  795000   0.98319939 -6.8508681e-05    0.5195257 0.0046989081            0   0.51482679    1.4379291    1.9574548   -5.0578342 
  800000    0.9604952 1.5868774e-05   0.54206507 0.0011475008            0   0.54091757    1.4047242    1.9467893    3.5717518 
  805000   0.98429458 1.4886322e-05      0.49074 0.0043203619            0   0.48641963    1.4395308    1.9302708    3.4546301 
  810000   0.97693274 -5.2673679e-05   0.49046697  0.041478162            0   0.44898881    1.4287641    1.9192311   -3.4745536 
  815000   0.97971322 2.5551039e-05   0.49125765  0.020725934            0   0.47053172    1.4328306    1.9240882    4.5405146 
  820000   0.94389548 -2.4631242e-05   0.58116821 0.0067968454            0   0.57437136    1.3804471    1.9616154  -0.56062383 
  825000    1.0480937 6.6641681e-05   0.42113058 0.0043278253            0   0.41680276    1.5328371    1.9539676    8.7780758 
  830000    1.0960556 6.6672542e-05   0.33242672 0.0013988155            0    0.3310279    1.6029814    1.9354081    8.7626764 
  835000    1.0229171 -2.6331698e-05   0.45747478 0.00019424331            0   0.45728054    1.4960162     1.953491  -0.74287491 
  840000   0.94824399 3.1431971e-05   0.56542564  0.024060793            0   0.54136484    1.3868068    1.9522325    5.1708663 
  845000      1.01958 -4.7160613e-05   0.44690152  0.053007158            0   0.39389436    1.4911357    1.9380372   -2.8912095 
  850000   0.89118552 -0.0001163122   0.61709593 0.0028729833            0   0.61422295    1.3033588    1.9204548   -9.9899148 
  855000   0.97595085 -1.3815542e-05   0.51725733 5.5578327e-05            0   0.51720176    1.4273281    1.9445854   0.52987399 
  860000   0.98768189 -4.0681478e-05   0.51219364 0.00028223645            0    0.5119114    1.4444848    1.9566784   -2.2091049 
  865000   0.87331058 4.1734411e-07   0.66613733 0.0081179509            0   0.65801938    1.2772167    1.9433541    1.9860901 
  870000    1.0507316 -6.0914039e-05    0.4443905   0.05455554            0   0.38983496    1.5366949    1.9810854   -4.2565122 
  875000   0.89103871 8.8388148e-06   0.72580508  0.014719074            0     0.711086    1.3031441    2.0289492    2.9340438 
  880000   0.99497753 -9.0771797e-05   0.56020622  0.011726537            0   0.54847969    1.4551546    2.0153609   -7.2796711 
  885000   0.98339055 -2.6377515e-05   0.56217436 0.0095048391            0   0.55266953    1.4382087     2.000383  -0.70067445 
  890000   0.91542066 -8.0349575e-05   0.63917485  0.026410721            0   0.61276413    1.3388027    1.9779776   -6.2498189 
  895000    1.0034941 4.402339e-05   0.54341976  0.012568505            0   0.53085126    1.4676101    2.0110299    6.5190251 
  900000    1.0478248 -9.1240936e-05   0.51064383 0.0017766635            0   0.50886716    1.5324438    2.0430876   -7.2999842 
  905000    1.0722752 -4.5251521e-05    0.5130451 0.0021767044            0   0.51086839    1.5682024    2.0812475   -2.5525083 
  910000     1.115619 -5.9537289e-06   0.41842109  0.017542038            0   0.40087906    1.6315928    2.0500139     1.440352 
  915000   0.93527165 0.00014493684   0.70617089  0.027364759            0   0.67880613    1.3678348    2.0740057    16.915538 
  920000    1.1733089 1.5979329e-05   0.39743529  0.012453194            0    0.3849821    1.7159643    2.1133996    3.7496829 
  925000    1.1470772 -2.7457347e-05   0.41490804 0.0010916287            0   0.41381641    1.6776005    2.0925085  -0.71912384 
  930000   0.99697412 -5.4229379e-05   0.64800398 0.0053362533            0   0.64266773    1.4580747    2.1060786   -3.4470098 
  935000    1.1459101 3.4699845e-05   0.46573063    0.0111561            0   0.45457453    1.6758935    2.1416241    5.6948883 
  940000    1.0311107 7.7251852e-05   0.59355723 0.0091625362            0    0.5843947    1.5079994    2.1015567    10.012146 
  945000    1.0826637 3.5084026e-05   0.48869571  0.013375547            0   0.47532016    1.5833956    2.0720913    5.6646957 
  950000    1.0431236 4.0078501e-05   0.53758168  0.018908603            0   0.51867307    1.5255682    2.0631499    6.1671885 
  955000    1.0423646 -4.3704075e-05   0.56166604  0.034316574            0   0.52734947    1.5244583    2.0861243    -2.389173 
  960000    1.1124165 -5.3921723e-06   0.47453371   0.01997465            0   0.45455906    1.6269092    2.1014429    1.5492845 
  965000     0.952168 -4.2444702e-05    0.7595251 0.0069480681            0   0.75257703    1.3925457    2.1520708   -2.1942667 
  970000    1.0391441 4.9099378e-05   0.61152448  0.010827303            0   0.60069718    1.5197483    2.1312727     7.159049 
  975000    1.1283256 -4.4833974e-05   0.50704042 0.0077848021            0   0.49925562    1.6501762    2.1572166   -2.4337823 
  980000    1.1911718 1.9637967e-05   0.39591368 0.0076933928            0   0.38822029    1.7420887    2.1380024    4.1489302 
  985000    1.0425432 -6.0525047e-05   0.63754801 0.0021543872            0   0.63539363    1.5247195    2.1622675   -4.0354973 
  990000    1.1411383 4.2473376e-06   0.49302231 0.00097756183            0   0.49204475    1.6689147     2.161937    2.5968644 
  995000    1.2069619 -5.1540758e-06   0.41250201 0.0014782983            0   0.41102371    1.7651818    2.1776838    1.6499065 
 1000000    1.0503977 -1.9932791e-05   0.62841841 0.00056380044            0   0.62785461    1.5362067    2.1646251   0.12350729 
 1005000     1.096367 -0.00010303902   0.58251939 0.0075524242            0   0.57496696    1.6034368    2.1859562   -8.3652397 
 1010000    1.0714513 6.8787632e-05   0.62190138  0.011881946            0   0.61001944    1.5669975    2.1888988    9.2327524 
 1015000    1.0887607 -3.952708e-05   0.62840299  0.021847037            0   0.60655595    1.5923126    2.2207155   -1.8268575 
 1020000    1.1800764 4.0100838e-06   0.51706277  0.062362926            0   0.45469984    1.7258617    2.2429245     2.653557 
 1025000    1.1003508 1.2563298e-05   0.61120658   0.01494415            0   0.59626243    1.6092631    2.2204697    3.5069514 
 1030000    1.1065836 -7.8268966e-05   0.61746656            0            0   0.61746656    1.6183785    2.2358451   -5.7788971 
 1035000    1.1636798 4.2281545e-05   0.56844775            0            0   0.56844775    1.7018817    2.2703295    6.5999597 
 1040000    1.1989683 -2.2010058e-05   0.53769881 0.00068913866            0   0.53700967    1.7534912      2.29119  0.037360062 
 1045000    1.1930035 -2.8706276e-05   0.55310099  0.025370924            0   0.52773006    1.7447676    2.2978685  -0.64165413 
 1050000    1.1593488 -4.2233001e-06   0.63350982  0.059675639            0   0.57383419    1.6955477    2.3290575    1.8965916 
 1055000    1.2730425 -2.4110971e-05   0.50557663 0.0044279596            0   0.50114867    1.8618247    2.3674013  -0.10156205 
 1060000    1.1848546 1.0812253e-05    0.6555543            0            0    0.6555543    1.7328498    2.3884041    3.4955788 
 1065000    1.2893851 0.00012978204   0.47506838 0.00075097758            0   0.47431741    1.8857257    2.3607941    15.650475 
 1070000    1.1736418 5.040617e-06   0.64282536  0.015189121            0   0.62763624    1.7164512    2.3592765    2.8754357 
 1075000    1.2397913 -6.6604399e-07   0.57803826  0.067358609            0   0.51067965    1.8131948     2.391233    2.3230301 
 1080000    1.1878811 -9.1873272e-05   0.68866166  0.040848869            0   0.64781279    1.7372761    2.4259377   -6.9818853 
 1085000    1.3628852 1.4410238e-05   0.42482674  0.013900042            0   0.41092669    1.9932197    2.4180464    3.8936548 
 1090000    1.3703192 0.00014308507   0.46734945  0.027612715            0   0.43973674    2.0040918    2.4714412    17.123353 
 1095000    1.1071079 -3.3984841e-05   0.79522335 0.0094107209            0   0.78581263    1.6191453    2.4143686   -1.0656791 
 1100000    1.3526346 4.2607843e-05    0.4886119 3.9230648e-05            0   0.48857266    1.9782281      2.46684    6.8298832 
 1105000      1.28036 6.0398486e-05   0.56411116            0            0   0.56411116    1.8725265    2.4366377    8.6214426 
 1110000    1.3720466 -8.3169072e-05   0.48826264 0.00066010495            0   0.48760254    2.0066182    2.4948808   -6.0216322 
 1115000    1.3002588 -2.805749e-06   0.56091407 0.0058602137            0   0.55505386    1.9016286    2.4625426    2.1752339 
 1120000    1.1882313 3.7621492e-05   0.70717788  0.005741095            0   0.70143679    1.7377882    2.4449661    6.2974069 
 1125000    1.1459742 -4.1157303e-05   0.71006174  0.017300462            0   0.69276128    1.6759873    2.3860491   -1.8284587 
 1130000    1.3689882 8.6219059e-06   0.41353834   0.03190778            0   0.38163056    2.0021453    2.4156836    3.2985668 
 1135000    1.1672476 3.8981995e-05   0.67333933  0.014708482            0   0.65863084    1.7070997     2.380439    6.3721953 
 1140000    1.2449638 -0.00011851369   0.54369683  0.012354282            0   0.53134255    1.8207596    2.3644564   -9.7713455 
 1145000    1.2741325 -0.00013171358   0.49042565 0.0062696341            0   0.48415601    1.8634189    2.3538445   -11.133626 
 1150000    1.2761635 1.3771961e-05   0.46329968 0.00073251566            0   0.46256716    1.8663891    2.3296888    3.7399376 
 1155000    1.1362853 5.410144e-05   0.59973912            0            0   0.59973912    1.6618172    2.2615563    7.8015438 
 1160000    1.0181003 -7.4538264e-06   0.75704552            0            0   0.75704552    1.4889716    2.2460172    1.4827453 
 1165000    1.1546018 -7.8503079e-05   0.56750085 0.0023637336            0   0.56513712    1.6886052     2.256106   -5.7826093 
 1170000    1.2045375 -2.1953751e-05   0.51034873  0.013619201            0   0.49672953    1.7616361    2.2719849  0.023920758 
 1175000     1.107014 -7.429256e-05   0.61189948 0.0099502308            0   0.60194925     1.619008    2.2309075   -5.3766507 
 1180000    1.1812209 -9.0908454e-05   0.49954879 0.0043550836            0   0.49519371    1.7275356    2.2270844   -7.0819414 
 1185000    1.1579112 -4.0840843e-05   0.50076528  0.032095052            0   0.46867023    1.6934452    2.1942105   -1.9878918 
 1190000     1.169514 1.7519214e-06   0.45244392  0.010610093            0   0.44183382    1.7104142    2.1628581    2.3422548 
 1195000    1.1669785 7.3549128e-05   0.41953796            0            0   0.41953796    1.7067061     2.126244    9.6576748 
 1200000    1.0642603 3.7588508e-05   0.56665263            0            0   0.56665263    1.5564807    2.1231333    5.9721965 
 1205000    1.1298604 2.4619485e-05   0.46646583 0.00045134465            0   0.46601448    1.6524208    2.1188866    4.6399219 
 1210000    1.0267855 4.060532e-05   0.59408568  0.051753501            0   0.54233218    1.5016738    2.0957595    6.2537442 
 1215000    1.0140507 1.5733995e-05   0.59314893  0.060924665            0   0.53222427    1.4830491    2.0761981    3.6873592 
 1220000    1.0932077 0.00010075294   0.47405435 0.0032912097            0   0.47076314    1.5988162    2.0728706    12.389972 
 1225000    1.0334043 5.1493654e-06   0.56441025 0.0014941621            0   0.56291609    1.5113538     2.075764     2.603059 
 1230000    1.0920349 -0.00010004311   0.46998704   0.01679782            0   0.45318922     1.597101     2.067088   -8.1773262 
 1235000     1.186232 -1.871705e-05   0.35302008  0.036942551            0   0.31607753    1.7348643    2.0878844   0.17125845 
 1240000    1.0866184 -7.578999e-06   0.50519523 0.0044706588            0   0.50072457    1.5891794    2.0943747    1.3182852 
 1245000    1.1051963 5.9676475e-05   0.52232678 0.0080854696            0   0.51424131    1.6163497    2.1386764    8.2495475 
 1250000    1.0412322 -0.00012542149   0.59135018  0.013851986            0    0.5774982    1.5228021    2.1141523   -10.729009 
 1255000   0.99178266 -9.3421258e-05   0.64364101  0.025380338            0   0.61826067    1.4504821    2.0941231   -7.4722137 
 1260000    1.1573358 6.2853734e-06   0.37969336   0.01891812            0   0.36077524    1.6926037     2.072297    2.7159192 
 1265000    1.1111705 -8.3960622e-07   0.44691377 0.0035931055            0   0.44332066    1.6250868    2.0720006    1.9860249 
 1270000    1.0006404 5.6671577e-05   0.54038628 0.0021072282            0   0.53827905    1.4634366    2.0038229    7.8069923 
 1275000   0.91214687 -5.0560966e-06   0.61625706 0.0014875792            0   0.61476948    1.3340148    1.9502719    1.4325276 
 1280000   0.98444259 0.00010425149   0.48977719  0.012857443            0   0.47691975    1.4397473    1.9295245    12.604877 
 1285000    1.0541381 6.3441465e-05   0.41019941  0.042869902            0   0.36732951     1.541677    1.9518765    8.4482824 
 1290000   0.95776344 2.5307715e-05   0.58554256  0.048234101            0   0.53730846     1.400729    1.9862716    4.5777816 
 1295000   0.96274846 -4.5932189e-05   0.54040146  0.018763266            0   0.52163819    1.4080196    1.9484211   -2.7550351 
 1300000   0.91696955 -4.6434917e-05   0.59983964 0.0088970707            0   0.59094257     1.341068    1.9409076   -2.8140279 
 1305000    0.8906116 9.0620112e-05   0.59223885  0.013922434            0   0.57831642    1.3025195    1.8947583    11.174258 
 1310000   0.98585395 1.9940559e-05   0.42609807 0.0046362163            0   0.42146186    1.4418114    1.8679095    3.9098227 
 1315000    1.0108479 -1.4129783e-05   0.38810158 0.0029870424            0   0.38511454     1.478365    1.8664666   0.41957684 
 1320000   0.83938099 -3.4671504e-05   0.59439412  0.017926763            0   0.57646736    1.2275947    1.8219888   -1.7283731 
 1325000    0.8747145 -8.3661472e-06   0.55822898  0.023690308            0   0.53453867      1.27927    1.8374989   0.98080547 
 1330000   0.88885467 9.2329117e-05   0.55293741 0.0092675835            0   0.54366983      1.29995    1.8528874    11.307389 
 1335000    0.8042009 1.0053133e-05   0.67931335  0.023756179            0   0.65555717    1.1761438    1.8554572     2.884898 
 1340000    0.8900762 4.5020045e-05   0.55581984  0.039834403            0   0.51598543    1.3017364    1.8575563    6.4676089 
 1345000    1.0010144 -1.2443351e-05   0.37508528  0.018467282            0     0.356618    1.4639836    1.8390688   0.56486968 
 1350000   0.96218175 -8.0998278e-05   0.46766106  0.010024844            0   0.45763621    1.4071908    1.8748519   -6.4193718 
 1355000   0.95401023 -5.0149638e-07   0.50364787  0.018920456            0   0.48472742      1.39524    1.8988878    1.8475346 
 1360000    0.9341111 1.2997431e-05   0.57901082  0.033373362            0   0.54563746    1.3661375    1.9451483    3.2760852 
 1365000   0.90232195 6.1987747e-05   0.58041927  0.024503284            0   0.55591599    1.3196459    1.9000651    8.2476105 
 1370000   0.96250802 3.5509223e-05   0.47133081  0.033098322            0   0.43823249     1.407668    1.8789988    5.5151432 
 1375000   0.92655958 8.0520132e-07   0.53381673  0.050596446            0   0.48322029    1.3550934    1.8889101    1.9713627 
 1380000   0.88754872 -0.00010479582   0.60135847 0.0032299539            0   0.59812852      1.29804    1.8993985   -8.8316939 
 1385000   0.87897103 5.2621246e-05   0.63344127 0.0043679954            0   0.62907328    1.2854951    1.9189364     7.307352 
 1390000   0.93933682 -3.6826942e-05   0.54696059  0.010442752            0   0.53651784    1.3737801    1.9207407   -1.8503382 
 1395000    1.0862332 -1.3160182e-05   0.36429281   0.01304831            0    0.3512445     1.588616    1.9529088   0.60530617 
 1400000   0.89382712 -4.7056191e-05   0.65769463 0.0086905343            0    0.6490041    1.3072222    1.9649168   -2.8536371 
 1405000   0.86406916 -0.00014324782   0.70538959  0.017459897            0   0.68792969    1.2637012    1.9690907   -12.699486 
 1410000   0.93822369 -1.201383e-05   0.63169564  0.034587927            0   0.59710771    1.3721521    2.0038478   0.77363164 
 1415000   0.98687766 5.7383103e-05   0.56085261  0.057970834            0   0.50288178    1.4433086    2.0041612    7.8801909 
 1420000   0.93825743 -8.0026503e-05   0.58922579  0.093158859            0   0.49606693    1.3722015    1.9614273   -6.2332866 
 1425000   0.95489324 -5.7316095e-05   0.62177468 0.0039908271            0   0.61778385    1.3965314     2.018306   -3.8508621 
 1430000   0.99098043 2.9941838e-05   0.57672954 0.00019051235            0   0.57653903    1.4493089    2.0260384    5.0920826 
 1435000   0.99517034 0.00011391872   0.60060783 0.0032232249            0    0.5973846    1.4554366    2.0560445    13.721321 
 1440000   0.94087522 2.3759144e-05   0.68042257  0.011165859            0   0.66925672      1.37603    2.0564526    4.4893889 
 1445000   0.99866168 -6.6796947e-05    0.5899056   0.01276616            0   0.57713944    1.4605427    2.0504483   -4.7895591 
 1450000    1.0273054 -5.8155758e-05   0.57537816  0.022298598            0   0.55307957    1.5024342    2.0778123   -3.8773373 
 1455000   0.95048124 -7.1030704e-05   0.69442342  0.042999222            0    0.6514242    1.3900788    2.0845022   -5.1890418 
 1460000    1.0754533 -5.5375096e-05   0.51779112  0.040670515            0   0.47712061    1.5728504    2.0906416   -3.5797683 
 1465000    0.9852137 -9.5178276e-05   0.61510393  0.010615923            0     0.604488     1.440875     2.055979   -7.6902765 
 1470000   0.93010219 9.2153281e-06   0.73776047  0.007274021            0   0.73048645    1.3602745    2.0980349    3.0416845 
 1475000   0.95948732 6.8759207e-05   0.69531609 0.0016482547            0   0.69366784    1.4032502    2.0985663    9.1395091 
 1480000    1.0762181 4.2849881e-05    0.5663654            0            0    0.5663654     1.573969    2.1403344    6.5281623 
 1485000    1.0757618 -5.2509663e-05   0.53693853  0.040776194            0   0.49616234    1.5733017    2.1102402   -3.2667492 
 1490000   0.92697223 -4.4829826e-05   0.75196956   0.13089504            0   0.62107452    1.3556969    2.1076665   -2.4829078 
 1495000    1.0064812 -3.5699262e-05   0.60991754  0.043609738            0    0.5663078    1.4719787    2.0818963   -1.5737081 
 1500000    1.0325313 -5.1139144e-05   0.57935301  0.049830883            0   0.52952213    1.5100771    2.0894301   -3.1472183 
 1505000    1.0446064 1.8165975e-06   0.54455904  0.026456052            0   0.51810299    1.5277368    2.0722959    2.2583155 
 1510000   0.95576011 3.3613895e-05    0.7072368  0.031104992            0   0.67613181    1.3977992     2.105036    5.5470988 
 1515000   0.96377987 3.3905448e-05   0.69457505  0.066043771            0   0.62853128    1.4095281    2.1041031     5.576021 
 1520000    0.8955328 -1.9149968e-06   0.81571126  0.069995475            0   0.74571578    1.3097167     2.125428    1.9293323 
 1525000    1.1355435 -4.7902601e-05   0.45727984 0.0082059231            0   0.44907391    1.6607323    2.1180122   -2.7872142 
 1530000   0.98518392 -3.7039926e-05   0.72137725            0            0   0.72137725    1.4408315    2.1622087   -1.6306797 
 1535000    1.1269293 3.6875045e-05   0.53200856            0            0   0.53200856    1.6481341    2.1801427    5.9561473 
 1540000    1.0098533 9.4150457e-06   0.64556183            0            0   0.64556183    1.4769105    2.1224724     3.086573 
 1545000    1.1773614 -6.9326161e-05   0.41351879 0.0043392728            0   0.40917952     1.721891    2.1354098   -4.9635891 
 1550000   0.99477423 4.205983e-05    0.7002135   0.04417974            0   0.65603376    1.4548573    2.1550708    6.4619974 
 1555000    1.0399645 -8.6398483e-06    0.6006175  0.064393268            0   0.53622423     1.520948    2.1215655    1.2368451 
 1560000   0.97769889 -8.891673e-05   0.70604933  0.039956176            0   0.66609315    1.4298846    2.1359339   -6.9691392 
 1565000    1.1114325 1.5569097e-05   0.51490717  0.025986344            0   0.48892083    1.6254701    2.1403773    3.7346528 
 1570000   0.95659904 -9.050737e-06   0.76420912  0.018949234            0   0.74525988    1.3990261    2.1632352    1.2364398 
 1575000    1.0063731 -3.0141908e-06   0.68435125  0.011449582            0   0.67290167    1.4718206    2.1561719    1.8475187 
 1580000    1.0833657 1.2155623e-05   0.63476027  0.021302012            0   0.61345825    1.5844224    2.2191827    3.4639184 
 1585000   0.96127815 -3.8807525e-06   0.80157572  0.054908021            0    0.7466677    1.4058693     2.207445     1.810056 
 1590000    1.0205781 -1.8411725e-05   0.73219456  0.054145175            0   0.67804938    1.4925955      2.22479   0.33942939 
 1595000   0.98286062 -1.8585999e-05   0.81584599  0.052844868            0   0.76300112    1.4374336    2.2532796   0.35007336 
 1600000    1.0975997 -5.4608074e-05   0.65003191 0.0091547407            0   0.64087717    1.6052396    2.2552715   -3.3365952 
 1605000   0.97563438 8.7106985e-05   0.78892072 0.0052426387            0   0.78367808    1.4268653     2.215786    11.135541 
 1610000    1.1318494 8.2232422e-05   0.59098703  0.015694761            0   0.57529227    1.6553297    2.2463167    10.666917 
 1615000     1.218105 -8.5720819e-05   0.45396627  0.011769298            0   0.44219697    1.7814786    2.2354448    -6.542367 
 1620000    1.1029137 -5.0004131e-05   0.62795168 0.0047668553            0   0.62318482    1.6130112    2.2409629   -2.8794601 
 1625000     1.041767 3.3445099e-05   0.76542143 0.00020472592            0    0.7652167    1.5235843    2.2890057    5.7137839 
 1630000    1.1319662 3.1292308e-05   0.66617211 0.0062054517            0   0.65996666    1.6555006    2.3216727    5.5260051 
 1635000    1.0852695 4.5758669e-05   0.75668705   0.03258602            0   0.72410103    1.5872067    2.3438937    7.0295815 
 1640000   0.86160975 9.9413465e-06    1.1013682 0.0098167598            0    1.0915514    1.2601043    2.3614724    3.3794663 
 1645000    1.0901583 -6.4158681e-05   0.77724059            0            0   0.77724059    1.5943565    2.3715971   -4.1982519 
 1650000    1.2245185 -3.6684985e-05   0.54859335 0.00041396886            0   0.54817939    1.7908583    2.3394517   -1.4170908 
 1655000    1.0147997 1.4877087e-05   0.84214417 0.0018284709            0    0.8403157    1.4841445    2.3262887    3.8497024 
 1660000    1.0734097 -2.8170058e-05   0.76939343 0.00047251052            0   0.76892092    1.5698618    2.3392552  -0.54535875 
 1665000    1.2900636 1.2441823e-07   0.50719624 0.0058914769            0   0.50130476    1.8867181    2.3939143    2.4066547 
 1670000    1.1966335 3.4813177e-05   0.63897654  0.032400963            0   0.60657558    1.7500765    2.3890531    5.9539224 
 1675000    1.3233682 1.6128695e-05   0.47292591  0.032451039            0   0.44047487    1.9354261     2.408352    4.0599304 
 1680000    1.2730058 1.438217e-05   0.52248145 0.0042777614            0   0.51820369     1.861771    2.3842525    3.8569867 
 1685000    1.0719047 -5.7658574e-05   0.76696164 0.0044185918            0   0.76254305    1.5676606    2.3346223   -3.5696157 
 1690000   0.99079624 -7.0727276e-05   0.88373552 0.0058769754            0   0.87785855    1.4490395     2.332775    -4.909698 
 1695000      1.03864 -3.1812837e-05   0.82861535  0.021730756            0    0.8068846    1.5190109    2.3476263  -0.91000824 
 1700000    1.2644386 3.3395472e-05    0.5126833  0.024241976            0   0.48844133    1.8492414    2.3619248    5.7816211 
 1705000    1.0950252 6.6821853e-05   0.76411574  0.052466981            0   0.71164876    1.6014744    2.3655901    9.2081479 
 1710000   0.97360359 3.0224425e-06   0.96186728   0.10551045            0   0.85635683    1.4238953    2.3857625    2.6952606 
 1715000    1.1716163 -3.9637152e-05   0.66562247   0.01459118            0   0.65103129    1.7134889    2.3791113   -1.6797331 
 1720000    1.2243777 4.551528e-05   0.60966062  0.029822119            0    0.5798385    1.7906524     2.400313    7.0610777 
 1725000    1.1713912 6.8866201e-05   0.71361416  0.057446237            0   0.65616792    1.7131596    2.4267738    9.4786728 
 1730000    1.1538819 1.0438518e-05   0.72206135   0.02178959            0   0.70027176    1.6875523    2.4096136    3.4785179 
 1735000    1.1214335 -3.4784047e-05   0.74377752  0.061122026            0   0.68265549    1.6400965    2.3838741   -1.1780123 
 1740000    1.2016915 -4.3335058e-05   0.61685607  0.021764429            0   0.59509164    1.7574738    2.3743299     -2.06318 
 1745000    1.1634543 4.7201109e-05   0.64208946 8.4596031e-05            0   0.64200486    1.7015519    2.3436414    7.1770349 
 1750000    1.0452254 0.00010141573   0.77741451 0.0064854185            0    0.7709291    1.5286421    2.3060566    12.691027 
 1755000    1.1322339 -3.5358903e-05   0.66898291   0.01529546            0   0.65368745    1.6558921     2.324875   -1.2958766 
 1760000    1.1626668 -0.00012430234   0.61820779  0.010785045            0   0.60742275    1.7004002     2.318608   -10.409952 
 1765000    1.0734463 -4.6441919e-05   0.75002689  0.041824268            0   0.70820263    1.5699152    2.3199421   -2.4357104 
 1770000   0.91042064 4.9417662e-05   0.98739837   0.14053855            0   0.84685982    1.3314902    2.3188886    7.3792571 
 1775000    1.1511866 3.9286396e-05   0.67004563  0.045147521            0   0.62489811    1.6836105    2.3536561     6.376583 
 1780000    1.1659857 -4.5798731e-05   0.66413361 0.0028773905            0   0.66125622     1.705254    2.3693876   -2.3204024 
 1785000     1.034378 -1.0900617e-05   0.82908118            0            0   0.82908118    1.5127779     2.341859    1.2256359 
 1790000     1.141563 3.115072e-05   0.61698066            0            0   0.61698066    1.6695358    2.2865165    5.4763502 
 1795000    1.2085086 3.8422542e-05     0.547056            0            0     0.547056    1.7674438    2.3144998     6.248968 
 1800000    1.1386239 -5.8988935e-05   0.67195429            0            0   0.67195429    1.6652374    2.3371917   -3.7032752 
 1805000    1.1813768 -0.00014004131   0.61041332 5.6669597e-05            0   0.61035665    1.7277636    2.3381769   -12.002053 
 1810000    1.1542298 -1.2559378e-05   0.68201463 0.00040277647            0   0.68161185     1.688061    2.3700757    1.0839953 
 1815000    1.1213536 9.5701324e-05   0.73402536  0.021547764            0    0.7124776    1.6399797    2.3740051    12.173821 
 1820000    1.1590035 -8.3957413e-06   0.67558527  0.030439115            0   0.64514615    1.6950427    2.3706279     1.510904 
 1825000    1.2237286 -4.4390761e-05   0.57800623  0.013826903            0   0.56417933    1.7897031    2.3677094   -2.1779046 
 1830000     1.199308 4.5255182e-05   0.59973281   0.03144037            0   0.56829244    1.7539879    2.3537207    6.9878513 
 1835000    1.1100088 3.2780165e-05    0.7380102   0.05479702            0   0.68321318    1.6233879    2.3613981     5.718087 
 1840000    1.3052943 1.4911864e-05   0.48150271  0.012059969            0   0.46944274    1.9089929    2.3904956    3.9174705 
 1845000    1.1785938 2.3138564e-05   0.69053145 0.0040165053            0   0.68651494    1.7236935     2.414225    4.7836139 
 1850000    1.2286603 5.5658251e-05   0.63281282  0.014377848            0   0.61843497    1.7969157    2.4297285    8.1291334 
 1855000    1.3737656 1.4904352e-05   0.42142999   0.02039135            0   0.40103864    2.0091323    2.4305622    3.9567678 
 1860000    1.2797705 -1.2317729e-05   0.59933463  0.010139253            0   0.58919538    1.8716644     2.470999    1.2096635 
 1865000    1.1463375 2.4163107e-05    0.8193601   0.12162974            0   0.69773036    1.6765186    2.4958787    4.9701809 
 1870000    1.0881603 1.1140129e-05   0.87401467  0.034745291            0   0.83926938    1.5914345    2.4654492    3.6061984 
 1875000    1.1922465 -6.8544108e-05   0.72576767  0.023329132            0   0.70243854    1.7436605    2.4694282   -4.5494885 
 1880000    1.2145413 -3.7035016e-05   0.65937004  0.062584617            0   0.59678543    1.7762667    2.4356367   -1.3567489 
 1885000    1.0981776 -4.7457475e-05   0.78796735  0.036154273            0   0.75181307    1.6060848    2.3940521   -2.4655933 
 1890000    1.2865702 -6.9834691e-05    0.5256342 0.0093930498            0   0.51624115     1.881609    2.4072432   -4.7438292 
 1895000    1.1761324 5.4275303e-05   0.65987645 2.4262592e-05            0   0.65985219    1.7200936      2.37997    7.9377611 
 1900000    1.2132493 7.6327919e-05   0.62466074            0            0   0.62466074    1.7743771    2.3990378    10.215017 
 1905000    1.2565152 8.5420825e-05   0.56362924            0            0   0.56362924    1.8376535    2.4012828    11.148375 
 1910000    1.2297439 9.5749757e-05    0.5943664 0.0028747727            0   0.59149163    1.7985004    2.3928668    12.197642 
 1915000    1.3142697 2.5249609e-05   0.52345708 0.0087001125            0   0.51475696    1.9221194    2.4455765    5.0311364 
 1920000    1.1827904 -6.9958647e-05   0.80955541 0.0034498878            0   0.80610552    1.7298309    2.5393864   -4.6243791 
 1925000    1.2299285 -7.6570576e-05   0.68443998 0.00023172111            0   0.68420826    1.7987704    2.4832103   -5.3576166 
 1930000    1.3242047 5.5848721e-05   0.57441604  0.037947908            0   0.53646814    1.9366494    2.5110654    8.2299744 
 1935000    1.3372109 6.6910399e-05   0.55595374  0.075709976            0   0.48024377     1.955671    2.5116247    9.3632496 
 1940000    1.1479182 2.231789e-05   0.82470212   0.12841162            0    0.6962905    1.6788304    2.5035325    4.7888844 
 1945000    1.3157606 -5.4893996e-05   0.58855404  0.042335247            0   0.54621879    1.9242999    2.5128539   -3.1082912 
 1950000    1.3016266 -3.3202769e-05   0.63754333  0.008558461            0   0.62898487    1.9036289    2.5411722  -0.85879128 
 1955000    1.1550281 0.00012578933   0.82802327  0.020429961            0   0.80759331    1.6892286    2.5172519     15.39808 
 1960000    1.3576738 6.5678372e-05   0.54137375  0.017893939            0   0.52347981    1.9855979    2.5269717     9.252437 
 1965000    1.3366388 -4.688053e-05   0.58860251  0.003325679            0   0.58527683    1.9548343    2.5434368   -2.2571295 
 1970000    1.2243072 -8.2829943e-06   0.71865998  0.018135612            0   0.70052436    1.7905493    2.5092093    1.6610306 
 1975000    1.2841486 -2.2950872e-05    0.6897069  0.052174955            0   0.63753195    1.8780673    2.5677742   0.21760497 
 1980000    1.1996427 -1.4709677e-05   0.76339245  0.023947211            0   0.73944524    1.7544774    2.5178698     1.011599 
 1985000    1.2630741 0.00010871258   0.65813143 0.0087922806            0   0.64933915    1.8472459    2.5053773    13.637545 
 1990000    1.2908815 2.7019264e-05     0.633141  0.028179789            0   0.60496121    1.8879142    2.5210552    5.2878278 
 1995000    1.3291458 -6.4902981e-05   0.56455277  0.085061975            0    0.4794908    1.9438757    2.5084285   -4.1376367 
 2000000    1.2102344 8.050455e-05   0.72972119  0.082478561            0   0.64724263    1.7699678    2.4996889    10.743355 
 2005000    1.2380607 5.9824668e-05   0.66121175  0.086018867            0   0.57519289    1.8106637    2.4718755    8.5979215 
 2010000    1.2712675 4.8770054e-06   0.54243581  0.012448578            0   0.52998723    1.8592287    2.4016645    2.9010699 
 2015000     1.248505 -3.8190851e-06   0.55155421 0.00031092461            0   0.55124329    1.8259386    2.3774928    1.9864185 
 2020000    1.2089304 -4.5228205e-05    0.6433908 0.00026823818            0   0.64312256    1.7680607    2.4114515   -2.2199167 
 2025000    1.2085661 -2.2629117e-05   0.64486847  0.003681403            0   0.64118707    1.7675279    2.4123963  0.095174706 
 2030000    1.3212792 6.1330988e-05   0.51657551  0.017144964            0   0.49943054    1.9323708    2.4489463    8.7292395 
 2035000     1.266505 4.6622266e-05   0.62010689  0.030249074            0   0.58985782    1.8522635    2.4723704    7.2464905 
 2040000    1.2113696 -5.9871085e-05   0.70827587  0.033417393            0   0.67485848    1.7716281     2.479904   -3.6508951 
 2045000    1.0853305 -4.0339615e-06   0.85832421  0.035671165            0   0.82265304    1.5872959    2.4456201    2.0325424 
 2050000    1.1899478 1.6130223e-06   0.67559959  0.015318069            0   0.66028152    1.7402986    2.4158982    2.5810717 
 2055000    1.3065691 1.9347993e-05   0.47930513  0.033026636            0   0.44627849    1.9108574    2.3901625     4.371397 
 2060000    1.1753028 -4.1058033e-05   0.69551169  0.021581075            0   0.67393062    1.7188804    2.4143921   -1.7899506 
 2065000    1.0431744 -8.2935406e-05   0.90819783 0.0008360738            0   0.90736176    1.5256426    2.4338404   -6.0587452 
 2070000    1.2056459 -7.688321e-05   0.68134298  0.047220678            0    0.6341223    1.7632571    2.4446001   -5.4282406 
 2075000    1.1805959 -6.0482638e-05    0.6905082   0.07202434            0   0.61848386    1.7266215    2.4171297   -3.7762925 
 2080000    1.2386408 1.4571115e-06   0.61751819  0.069849355            0   0.54766883    1.8115122    2.4290304    2.5782386 
 2085000    1.1874475 3.7988793e-05   0.64051273  0.011941631            0    0.6285711     1.736642    2.3771547    6.2672071 
 2090000    1.3013739 -4.4400493e-05   0.48474099  0.042986204            0   0.44175478    1.9032593    2.3880003   -2.1586101 
 2095000    1.1731504 -5.0922982e-05   0.68322632  0.046167966            0   0.63705836    1.7157324    2.3989587   -2.8155546 
 2100000    1.0364062  7.68673e-05   0.86677698  0.077150573            0   0.78962641     1.515744     2.382521    10.253733 
 2105000    1.2789119 3.2108625e-05   0.50880318  0.037346882            0    0.4714563    1.8704087    2.3792119    5.6671351 
 2110000    1.2037779 3.3282643e-05   0.63521707  0.029369936            0   0.60584713    1.7605252    2.3957423     5.803885 
 2115000     1.161213 2.8194383e-05   0.72424447  0.071521227            0   0.65272324    1.6982741    2.4225185    5.3096233 
 2120000    1.0764588 -8.1932889e-05   0.83000104  0.037934988            0   0.79206605     1.574321     2.404322   -5.9856058 
 2125000    1.2501792 -7.3131586e-07   0.57079291  0.049206104            0    0.5215868     1.828387    2.3991799    2.3242932 
 2130000    1.1754225 6.8196556e-05   0.70455712  0.089191557            0   0.61536556    1.7190555    2.4236126    9.4069399 
 2135000    1.2195716 -8.6888268e-05   0.64247913  0.014819599            0   0.62765953    1.7836234    2.4261025   -6.4712561 
 2140000    1.3365935 2.0051399e-05   0.48586464 0.0071437139            0   0.47872093     1.954768    2.4406326    4.4938959 
 2145000    1.1005157 0.00014669971    0.8172239  0.037497086            0   0.77972682    1.6095043    2.4267282    17.448778 
 2150000    1.1453663 7.9343808e-06   0.70890723  0.016196194            0   0.69271103    1.6750982    2.3840054     3.196486 
 2155000    1.1742504 -4.625781e-05   0.62050366  0.013459048            0   0.60704461    1.7173413    2.3378449   -2.3989548 
 2160000    1.1047689 -4.0466525e-06   0.71579025  0.032246538            0   0.68354372    1.6157246    2.3315148    1.9171376 
 2165000    1.1423386 4.2018018e-05   0.65898802 0.0098630181            0     0.649125    1.6706701    2.3296581    6.6323032 
 2170000    1.1384351 1.0219266e-05   0.67526566 0.00028476267            0    0.6749809    1.6649613    2.3402269    3.3866798 
 2175000    1.1483459 -2.6650496e-05   0.62359228  0.012508322            0   0.61108395    1.6794559    2.3030482  -0.42596255 
 2180000    1.1334251 4.435717e-05   0.67679829  0.095249897            0   0.58154839    1.6576342    2.3344325    6.8766067 
 2185000    1.2573431 7.5297263e-07   0.51125112  0.025106368            0   0.48614475    1.8388643    2.3501155    2.4272198 
 2190000    1.2474813 -7.6574217e-05   0.50606024  0.010174512            0   0.49588573    1.8244414    2.3305016   -5.5106982 
 2195000    1.1646522 3.9399055e-05   0.63405268  0.031168672            0   0.60288401    1.7033039    2.3373565    6.3718198 
 2200000    1.1716796 6.2951961e-05   0.61690854  0.038544706            0   0.57836384    1.7135814    2.3304899    8.7767707 
 2205000    1.1640534 -8.4709655e-05   0.63749729  0.015262092            0    0.6222352    1.7024281    2.3399254   -6.3343433 
 2210000    1.1586569 -7.8916049e-05   0.69505213  0.039708416            0   0.65534372    1.6945357    2.3895878   -5.6914156 
 2215000    1.1193505 3.9095439e-05   0.72017872  0.068233273            0   0.65194545    1.6370501    2.3572288    6.3606018 
 2220000     1.091251 -9.4352239e-06   0.74811147  0.011648364            0    0.7364631    1.5959545     2.344066    1.3778991 
 2225000    1.2731164 -3.6038759e-05   0.48688052 0.0057298467            0   0.48115067    1.8619328    2.3488133   -1.3415557 
 2230000    1.1551473 6.9111892e-05   0.59694412  0.036534377            0   0.56040974    1.6894029     2.286347    9.3634048 
 2235000    1.0291331 4.8102129e-05   0.79428372  0.021904291            0   0.77237943    1.5051072    2.2993909    7.2250489 
 2240000    1.0846556 -4.3979849e-05   0.70339719  0.026038222            0   0.67735897    1.5863088     2.289706   -2.2138305 
 2245000    1.1587676 1.0616393e-05   0.58814311  0.037714443            0   0.55042866    1.6946977    2.2828408    3.3699594 
 2250000    1.2460446 5.5094494e-05   0.50061421  0.011922657            0   0.48869155    1.8223403    2.3229545    7.9646306 
 2255000    1.0559806 -3.9321029e-06   0.77498422  0.036352283            0   0.73863193    1.5443717    2.3193559    1.9167085 
 2260000    1.2400364 -2.7790482e-05   0.51574188  0.048715455            0   0.46702643    1.8135533    2.3292951  -0.51645018 
 2265000    1.1226011 5.0250593e-05   0.64724074  0.049673543            0   0.59756719    1.6418042    2.2890449    7.4347056 
 2270000    1.1615331 4.8055516e-05   0.60559134  0.017970334            0     0.587621    1.6987422    2.3043336    7.2252184 
 2275000    1.1104445 -6.1361158e-05   0.63776877  0.024613446            0   0.61315533    1.6240251    2.2617939   -4.0215887 
 2280000    1.1035992 -4.6145372e-05   0.62227457  0.017667457            0   0.60460712    1.6140139    2.2362885   -2.4889977 
 2285000    1.0805878 -1.5343421e-05   0.66214839  0.013923468            0   0.64822492    1.5803597    2.2425081   0.67134176 
 2290000    1.1795375 -1.5221604e-05   0.52165242  0.033155613            0   0.48849681    1.7250736     2.246726   0.68803382 
 2295000   0.99988933 1.4195012e-05    0.7770525  0.026298552            0   0.75075395    1.4623382    2.2393907    3.6929599 
 2300000     1.150871 3.0558495e-05   0.59565485   0.04291388            0   0.55274097    1.6831488    2.2788036    5.4079935 
 2305000    1.1982418 1.2292962e-06   0.51208372  0.054409245            0   0.45767447    1.7524287    2.2645124    2.3903923 
 2310000    1.0474979 -7.3499078e-06   0.70636014 0.0021331025            0   0.70422704    1.5319657    2.2383258    1.4856953 
 2315000    1.1671475 5.3814299e-05   0.50532821  0.016843506            0    0.4884847    1.7069532    2.2122815    7.7228657 
 2320000   0.95776962 1.0374846e-05   0.79765559   0.04444267            0   0.75321292    1.4007381    2.1983937    3.2607779 
 2325000   0.98674272 4.2833921e-05   0.74645375  0.045685881            0   0.70076787    1.4431112     2.189565    6.5757585 
 2330000    1.1650539 8.1675338e-05    0.4676398  0.012698888            0   0.45494091    1.7038913    2.1715311    10.535086 
 2335000     1.033445 7.4205202e-05   0.68995522  0.062082512            0   0.62787271    1.5114133    2.2013685    9.7999812 
 2340000    1.0201884 -1.859303e-06   0.71060212  0.069797795            0   0.64080433    1.4920255    2.2026276     2.012235 
 2345000   0.96437724 -8.3926471e-05    0.7824388  0.011725566            0   0.77071324    1.4104017    2.1928405   -6.4012301 
 2350000     1.148548 4.1608356e-05   0.49127279   0.04965681            0   0.44161598    1.6797514    2.1710242    6.4317199 
 2355000    1.0622537 8.4431235e-05   0.61427661  0.032710004            0    0.5815666    1.5535461    2.1678227    10.813581 
 2360000    1.0978518 -4.7593936e-05   0.54056974 0.0024872775            0   0.53808246    1.6056082    2.1461779   -2.7274411 
 2365000    1.0409328 -6.464457e-05   0.59787606 0.0074643429            0   0.59041172    1.5223643    2.1202403   -4.4993637 
 2370000   0.94930245 -5.183781e-05   0.71015141  0.039083237            0   0.67106817    1.3883548    2.0985062   -3.2096855 
 2375000    1.1221178 8.5562142e-06   0.46092165  0.051873381            0   0.40904827    1.6410972    2.1020189    2.9781752 
 2380000    1.0632164 6.8717049e-05   0.50753424 0.0057628427            0    0.5017714     1.554954    2.0624883    9.0991141 
 2385000    1.0459408 7.1372595e-05   0.51233884 0.00024567587            0   0.51209317    1.5296884    2.0420273    9.3505809 
 2390000    1.0608768 1.6465305e-06   0.46798991 0.0089368834            0   0.45905302    1.5515323    2.0195222    2.1881269 
 2395000   0.98788741 2.2362354e-06   0.56816341  0.051505669            0   0.51665774    1.4447853    2.0129487    2.2419392 
 2400000    1.0225922 3.8853359e-05   0.57856413 0.0099357511            0   0.56862838    1.4955411    2.0741053    6.0526892 
 2405000   0.94053769 -2.4387695e-05   0.66400964 0.0013349488            0   0.66267469    1.3755364     2.039546  -0.45775397 
 2410000    1.0072824 -6.6043402e-05   0.53118848 0.0043045626            0   0.52688392    1.4731506    2.0043391   -4.7585053 
 2415000    1.1229883 -3.4414195e-05   0.38625481 0.0027671466            0   0.38348766    1.6423704    2.0286252   -1.4953884 
 2420000    1.0019631 3.7886471e-05   0.49442165 0.0040303568            0   0.49039129     1.465371    1.9597926    5.8393673 
 2425000   0.94443141 6.7625468e-05   0.57975427  0.020075801            0   0.55967846    1.3812309    1.9609852    8.8858331 
 2430000   0.98274014 2.3752939e-05   0.52521088  0.010160434            0   0.51505045    1.4372575    1.9624683    4.3947693 
 2435000    0.9297842 3.0481564e-05    0.5788208 0.0023502039            0    0.5764706    1.3598094    1.9386302    5.0599423 
 2440000   0.91210992 -3.6514266e-05   0.59146476  0.028818519            0   0.56264624    1.3339608    1.9254255   -1.8136353 
 2445000   0.91678419 -4.7310821e-05   0.57604859   0.01466585            0   0.56138274    1.3407969    1.9168455   -2.9277826 
 2450000   0.93407681 -5.9583298e-05   0.52351003  0.011894282            0   0.51161575    1.3660873    1.8895974   -4.2117323 
 2455000   0.89952359 -9.2903225e-05   0.55856353  0.046040452            0   0.51252308    1.3155532    1.8741168   -7.6391734 
 2460000    1.0561024 2.0929107e-06   0.32890338   0.03467752            0   0.29422586    1.5445498    1.8734532    2.0877672 
 2465000   0.90888431 5.8465156e-05    0.5563054  0.013662343            0   0.54264306    1.3292433    1.8855487    7.8723807 
 2470000   0.83295923 7.4703701e-06   0.63850579 0.0017474622            0   0.63675833    1.2182029    1.8567087    2.6216746 
 2475000   0.93062199 -3.122866e-05   0.49528522 1.0721181e-05            0   0.49527449    1.3610347    1.8563199   -1.3414949 
 2480000   0.92761226 -7.4215898e-06   0.50778162 0.0024305014            0   0.50535112    1.3566329    1.8644146    1.1044438 
 2485000   0.95849038 4.5392707e-05   0.54435414  0.011444661            0   0.53290948    1.4017922    1.9461463    6.5943595 
 2490000   0.92671893 5.257084e-05   0.59094287  0.023155979            0   0.56778689    1.3553264    1.9462693    7.3295233 
 2495000   0.86304117 -1.8190303e-05    0.6907852  0.024512417            0   0.66627278    1.2621977    1.9529829  0.090295903 
 2500000   0.99147686 -4.5368911e-05   0.51887138   0.05805298            0   0.46081839    1.4500349    1.9689063   -2.6768702 
 2505000   0.98478719 2.2381648e-06   0.55305504  0.029770742            0    0.5232843    1.4402513    1.9933063    2.2224944 
 2510000   0.92668224 -9.5293881e-06   0.61585293 0.00029009852            0   0.61556283    1.3552728    1.9711257   0.99531636 
 2515000   0.94464658 -2.4906759e-05   0.57696435            0            0   0.57696435    1.3815456      1.95851  -0.59194217 
 2520000    0.9873475 -1.7912567e-05   0.46271902 0.0096396441            0   0.45307938    1.4439957    1.9067147  0.072467852 
 2525000   0.81627667 -1.1296162e-05   0.75520029  0.074125543            0   0.68107474    1.1938046    1.9490049   0.79227797 
 2530000   0.95247122 6.2868881e-05   0.55964897  0.047898159            0   0.51175082    1.3929892    1.9526381    8.3904115 
 2535000    1.0143846 6.9451153e-06    0.4951573 0.0054835183            0   0.48967378    1.4835374    1.9786947    2.6898745 
 2540000   0.91527327 -1.2629483e-05   0.62047463  0.013442301            0   0.60703233    1.3385872    1.9590618   0.66580274 
 2545000   0.92422442 7.1814175e-05   0.61077399  0.029620017            0   0.58115398    1.3516782    1.9624522    9.3162237 
 2550000   0.95929541 4.5838228e-05   0.55848997  0.019364329            0   0.53912564    1.4029695    1.9614595    6.6552941 
 2555000    1.0084313 -9.8625777e-05   0.48830124 2.1452762e-05            0   0.48827979    1.4748308    1.9631321   -8.1361475 
 2560000   0.92299593 -0.00012988406   0.63627814            0            0   0.63627814    1.3498816    1.9861597   -11.313969 
 2565000   0.99119387 -2.9589582e-05   0.50766979 0.00068293091            0   0.50698686     1.449621    1.9572908   -1.0726824 
 2570000   0.85826907 -2.311765e-05   0.68920081  0.055537994            0   0.63366282    1.2552185    1.9444193    -0.422828 
 2575000   0.93555882 -2.303015e-06   0.56188037  0.085135167            0   0.47674521    1.3682548    1.9301351    1.6943064 
 2580000   0.98944901 -7.7032414e-06   0.46733681  0.033902913            0   0.43343389    1.4470692     1.914406    1.1255941 
 2585000   0.91422405 -3.3085791e-05   0.59379594  0.024027256            0   0.56976869    1.3370527    1.9308486   -1.4571364 
 2590000    1.0022645 1.7363056e-05   0.46643231  0.018120897            0   0.44831141    1.4658118    1.9322442    3.7102211 
 2595000   0.91861306 -8.136526e-05   0.58875997  0.009990158            0   0.57876981    1.3434716    1.9322316   -6.3995711 
 2600000    1.0322745 -5.1838603e-05   0.44039521  0.012802577            0   0.42759263    1.5097015    1.9500967   -3.3581763 
 2605000    1.0697694 -2.8343161e-05   0.44397231 0.0042834475            0   0.43968886    1.5645377      2.00851  -0.89382963 
 2610000   0.92848376 -2.7528856e-05   0.65238072   0.00237652            0    0.6500042    1.3579075    2.0102882  -0.80866661 
 2615000    1.0820054 -1.8501357e-05   0.44471295  0.029431266            0   0.41528169    1.5824329    2.0271459    0.1326069 
 2620000    1.0958429 -4.4181935e-05   0.38400588  0.019695525            0   0.36431035    1.6026702    1.9866761    -2.537554 
 2625000   0.99623266 3.6445405e-05   0.55462448  0.037037089            0   0.51758739    1.4569903    2.0116147    5.7436242 
 2630000    1.0344608 0.00011177436   0.51287618  0.030274237            0   0.48260194    1.5128989     2.025775     13.47147 
 2635000   0.95262887 2.9684424e-05   0.62482226 0.0056639653            0    0.6191583    1.3932197     2.018042     5.057727 
 2640000    1.0141743 2.3979596e-05   0.53078305 0.0023529526            0   0.52843009    1.4832299    2.0140129    4.4695235 
 2645000   0.95805458 9.4279899e-05   0.58394534  0.016189746            0   0.56775559    1.4011548    1.9851002    11.639362 
 2650000    1.0825803 -1.2045946e-05   0.42275518  0.025826639            0   0.39692854    1.5832737    2.0060289   0.77252406 
 2655000    1.0017019 -9.9718673e-05   0.53228927  0.038591899            0   0.49369737     1.464989    1.9972782   -8.2139139 
 2660000    0.9787177 1.9992943e-05    0.5392593   0.05448098            0   0.48477831    1.4313746    1.9706339    4.0179113 
 2665000    1.0166615 6.2174261e-05   0.46768654 0.0022008276            0   0.46548572    1.4868675     1.954554    8.3211983 
 2670000   0.99812481 -2.9871444e-05    0.5048492            0            0    0.5048492    1.4597575    1.9646067   -1.0942291 
 2675000   0.99671672 2.2409044e-05   0.55168859  0.043618657            0   0.50806994    1.4576982    2.0093868    4.3040729 
 2680000    1.0146118 1.4859837e-05   0.53048385  0.036052767            0   0.49443109    1.4838697    2.0143536    3.5360009 
 2685000   0.90299797 -0.0001122842   0.67071621  0.008103227            0   0.66261298    1.3206345    1.9913507   -9.5065518 
 2690000    1.1264018 -5.0938696e-06   0.32285049  0.013024535            0   0.30982596    1.6473627    1.9702131    1.4486009 
 2695000   0.89666871 9.2851703e-05   0.66020009  0.032863493            0    0.6273366     1.311378    1.9715781    11.479592 
 2700000    1.0013268 5.2087233e-05   0.51437749  0.013368096            0   0.50100939    1.4644405     1.978818    7.3125506 
 2705000   0.98010088 -3.11595e-07   0.51093373  0.051853573            0   0.45908015    1.4333975    1.9443313    1.9124239 
 2710000    1.0180278 -3.0048611e-05   0.47942585  0.030248575            0   0.44917727    1.4888656    1.9682915   -1.1086863 
 2715000   0.85982005 -6.1085934e-05   0.71010663 0.0092361221            0    0.7008705    1.2574868    1.9675934   -4.2876062 
 2720000    1.0391554 -8.097489e-05   0.46198716  0.019992482            0   0.44199468    1.5197647    1.9817519   -6.3100768 
 2725000    1.0005228 1.2845322e-05   0.51523538 0.0038063416            0   0.51142904    1.4632645    1.9784999    3.2938609 
 2730000    1.0448926 7.6511743e-05   0.44324508 4.6725295e-05            0   0.44319836    1.5281555    1.9714006     9.806203 
 2735000    1.0025148 9.6889409e-05   0.46827697  0.011829911            0   0.45644705    1.4661778    1.9344548     11.85593 
 2740000   0.94019399 1.6074409e-05   0.55086116  0.070428266            0    0.4804329    1.3750337    1.9258949    3.5719144 
 2745000   0.93171137 -1.5496494e-05   0.51414356  0.016717783            0   0.49742577    1.3626279    1.8767714   0.28993044 
 2750000   0.92833357 4.4616038e-05     0.504178 0.0039661179            0   0.50021189    1.3576878    1.8618658    6.4305481 
 2755000   0.86755144 -4.3406946e-05   0.57011264  0.034806231            0   0.53530641     1.268794    1.8389066   -2.6059647 
 2760000   0.97067956 -1.9698431e-05   0.45519506   0.10053068            0   0.35466438    1.4196189    1.8748139  -0.14230543 
 2765000   0.94930745 4.6421003e-05   0.48611112  0.035720571            0   0.45039055    1.3883621    1.8744733    6.6279839 
 2770000   0.95110388 -6.7905843e-06   0.49583484  0.073975316            0   0.42185953    1.3909894    1.8868243    1.1914684 
 2775000   0.98980653 -6.1710855e-06    0.4074835  0.028400356            0   0.37908314     1.447592    1.8550755    1.2231564 
 2780000   0.96727059 -1.825754e-05   0.42381074 0.0027106769            0   0.42110006    1.4146332     1.838444 -0.031128087 
 2785000   0.98828735 -2.3701874e-06   0.38852555 0.0019007306            0   0.38662482    1.4453702    1.8338958    1.5911886 
 2790000    0.9145352 2.657703e-05   0.56022003  0.010260237            0   0.54995979    1.3375077    1.8977278    4.6192156 
 2795000   0.87103586 -6.168453e-05   0.63380649    0.0252182            0   0.60858829    1.2738899    1.9076964   -4.4087995 
 2800000    1.0113387 -9.3381646e-07   0.44204344  0.029435124            0   0.41260831    1.4790829    1.9211264    1.8255035 
 2805000   0.97250136 4.7229328e-05   0.50510746  0.036916948            0   0.46819051    1.4222832    1.9273907    6.7636739 
 2810000    0.9017193 4.9565078e-05   0.55594053 0.0061480212            0    0.5497925    1.3187645     1.874705     6.950169 
 2815000   0.96705312 -1.2115817e-05   0.49179246  0.012088234            0   0.47970423    1.4143152    1.9061077   0.66544795 
 2820000    1.0270364 -2.8404098e-05   0.40400604  0.018013195            0   0.38599285    1.5020407    1.9060467   -1.0025329 
 2825000   0.94370009 -2.2137805e-05   0.53919847  0.012502922            0   0.52669555    1.3801614    1.9193599  -0.34755134 
 2830000    1.0029357 -8.3172563e-05   0.47673498 0.0034386161            0   0.47329636    1.4667934    1.9435284   -6.5733421 
 2835000    1.0163435 -9.1485536e-05   0.47552319 0.0040241098            0   0.47149908    1.4864024    1.9619256   -7.4061933 
 2840000    1.0309967 -7.7641536e-05   0.50439651  0.023505707            0    0.4808908    1.5078327    2.0122292   -5.9382641 
 2845000    1.0457052 6.4307172e-05   0.52076423  0.030892904            0   0.48987132    1.5293438     2.050108    8.6351624 
 2850000   0.96300523 9.8812678e-06   0.60272922 0.0067950582            0   0.59593416    1.4083952    2.0111244    3.0229662 
 2855000     1.110395 -2.2768778e-05   0.38349134 0.00015430959            0   0.38333703    1.6239527    2.0074441  -0.32407878 
 2860000   0.94109105 -1.6532944e-05   0.59321925 0.00099899681            0   0.59222025    1.3763457    1.9695649   0.27659142 
 2865000    1.0222654 -5.6120085e-05   0.48954304 0.0028136219            0   0.48672942    1.4950632    1.9846062   -3.7620905 
 2870000    1.1033443 1.5898969e-05   0.37614355  0.006879982            0   0.36926357     1.613641    1.9897846     3.617839 
 2875000   0.97398728 4.5100519e-05   0.56034153 0.0029823346            0   0.55735919    1.4244564    1.9847979    6.6030911 
 2880000    1.0386919 2.6728671e-06   0.45122749 0.00080810442            0   0.45041939    1.5190869    1.9703144     2.244016 
 2885000   0.99951665 1.7847879e-05   0.44466062            0            0   0.44466062    1.4617931    1.9064537    3.7340765 
 2890000   0.93603504 -7.6548932e-06   0.59777348 1.4595079e-05            0   0.59775888    1.3689512    1.9667247    1.1828637 
 2895000   0.98519694 -5.152184e-05   0.53426284  0.054050081            0   0.48021275    1.4408505    1.9751134    -3.300723 
 2900000   0.90396461 -9.6345729e-06   0.59915782  0.061972821            0     0.537185    1.3220482    1.9212061   0.93462581 
 2905000     1.066232 1.379956e-06   0.40297043  0.012612779            0   0.39035765    1.5593644    1.9623348    2.1036423 
 2910000     1.073455 2.8541631e-05      0.45224  0.010794181            0   0.44144582    1.5699279    2.0221679    4.9448309 
 2915000    1.1005885 -3.7134394e-06   0.44801322 0.0012829939            0   0.44673023    1.6096106    2.0576239    1.6773677 
 2920000    1.0556514 -3.8268562e-05   0.51322318  0.022272309            0   0.49095087    1.5438902    2.0571134   -1.8615874 
 2925000    1.0224564 4.2002025e-05   0.56118472  0.031534222            0   0.52965049    1.4953425    2.0565273    6.3575346 
 2930000    1.0788226 4.6995532e-05   0.49626816 0.0028848489            0   0.49338331    1.5777781    2.0740462    6.8863887 
 2935000    1.0703716 -1.4386842e-05   0.49336562 2.4863511e-06            0   0.49336313    1.5654185    2.0587842   0.58557151 
 2940000    1.1019703 -2.9191438e-05    0.4463143  0.015293619            0   0.43102068    1.6116316    2.0579459  -0.93125739 
 2945000    1.0050577 2.4426577e-05   0.56031904  0.094851053            0   0.46546798    1.4698968    2.0302159    4.5314974 
 2950000    1.0595709 -1.3268998e-05   0.53420623  0.066024213            0   0.46818201    1.5496225    2.0838287   0.72508334 
 2955000     1.020047 -9.9185637e-06   0.55387747  0.027873064            0    0.5260044    1.4918188    2.0456963    1.0300353 
 2960000    1.1113541 -3.7627461e-05   0.45758478  0.041978018            0   0.41560677    1.6253553    2.0829401   -1.7701119 
 2965000   0.96296705 -3.4267832e-06   0.65934017   0.01500847            0    0.6443317    1.4083393    2.0676795    1.7167769 
 2970000    1.0569805 8.3589003e-05   0.51624979  0.029365937            0   0.48688385    1.5458339    2.0620837    10.621598 
 2975000    1.0226698 2.3729019e-05   0.57953132  0.099351523            0    0.4801798    1.4956545    2.0751858    4.5050374 
 2980000    1.0920077 -3.8290913e-05   0.48230728  0.040782108            0   0.44152517    1.5970613    2.0793685   -1.8416209 
 2985000    1.0856186 -7.6541246e-05   0.49808912 0.0080440143            0   0.49004511    1.5877172    2.0858063   -5.7520173 
 2990000    1.1013561 2.9990985e-05   0.52992379   0.02434392            0   0.50557987    1.6107333    2.1406571     5.211734 
 2995000    1.0708834 7.9853131e-05   0.58646237  0.038248987            0   0.54821339     1.566167    2.1526294     10.32959 
 3000000    1.0869321 3.9687789e-05   0.56817454  0.019623979            0   0.54855056    1.5896381    2.1578127    6.2218422 
 3005000    1.1159175 8.2864202e-05   0.51008268 0.0030380157            0   0.50704466    1.6320293     2.142112    10.627406 
 3010000    1.1133427 3.5877119e-05   0.54103819 0.00069371603            0   0.54034447    1.6282637    2.1693019    5.8431188 
 3015000    1.1215957 5.1907182e-05   0.51124835  0.010764272            0   0.50048408    1.6403338    2.1515821    7.4668776 
 3020000    1.0009438 3.8638689e-05   0.65856906  0.019215491            0   0.63935357    1.4638803    2.1224493    6.0790511 
 3025000    1.1400112 -4.2364019e-05   0.45133477 0.0050935005            0   0.44624127    1.6672663    2.1186011   -2.2194745 
 3030000    1.0472731 -6.8733971e-05   0.62041922 3.0518214e-05            0    0.6203887    1.5316369    2.1520561   -4.8863025 
 3035000    1.1109598 -2.1598531e-05   0.51001953 0.0041089255            0    0.5059106    1.6247787    2.1347982 -0.076891313 
 3040000    1.0090522 -3.0287892e-06   0.67051475   0.05003972            0   0.62047503    1.4757388    2.1462536    1.8361056 
 3045000    1.0611294 -3.1416303e-05   0.57539148  0.016135004            0   0.55925648    1.5519018    2.1272933   -1.0897361 
 3050000    1.1734448 3.4999472e-05   0.40789893 0.0038128163            0   0.40408611     1.716163    2.1240619    5.7080078 
 3055000    1.0492568 8.1787815e-05   0.54305589  0.016123007            0   0.52693288    1.5345381     2.077594    10.452666 
 3060000    1.0627952 -4.2459387e-05   0.52663262  0.015098566            0   0.51153405     1.554338    2.0809706   -2.2668706 
 3065000    1.1182689 -0.00013567411   0.46162519 0.0030400533            0   0.45858514    1.6354682    2.0970934   -11.795935 
 3070000     1.138689 -2.2130728e-05   0.42135294  0.021322388            0   0.40003055    1.6653327    2.0866856  -0.17950096 
 3075000    1.0148887 5.6636072e-05   0.60400624  0.031827829            0   0.57217841    1.4842747    2.0882809    7.8878147 
 3080000    1.0552615 2.0928063e-05   0.53429531 0.0095471495            0   0.52474816      1.54332    2.0776153    4.2206489 
 3085000    1.1338976 4.3231727e-05   0.43322606  0.025018343            0   0.40820772    1.6583253    2.0915513    6.5184802 
 3090000    1.0266908 7.4527513e-05   0.58013127  0.091729677            0    0.4884016    1.5015353    2.0816665    9.7132839 
 3095000   0.96013452 -7.3724091e-06   0.69532022  0.090553709            0   0.60476651    1.4041967     2.099517    1.3445823 
 3100000    1.0188959  -0.00010231   0.58431985  0.053217393            0   0.53110246    1.4901353    2.0744551   -8.4020885 
 3105000   0.99146036 -5.3496279e-05   0.57570674 0.0024188414            0    0.5732879    1.4500108    2.0257175   -3.4523014 
 3110000    1.0566004 -2.9358787e-05   0.45055598  0.035844854            0   0.41471112    1.5452781    1.9958341   -1.0105057 
 3115000    1.0377697 8.6187357e-05   0.46893457  0.019332921            0   0.44960165    1.5177382    1.9866728    10.812258 
 3120000   0.89645918 3.8278756e-05   0.71339861 1.1435558e-05            0   0.71338717    1.3110716    2.0244702    5.9442147 
 3125000    1.1209889 3.2532161e-05   0.39905723 0.0097899613            0   0.38926727    1.6394463    2.0385035    5.3697969 
 3130000    1.0604889 3.7200658e-05   0.47076821  0.059083873            0   0.41168434     1.550965    2.0217332    5.8310805 
 3135000    1.0640864 -4.224845e-05   0.51415301  0.041864914            0    0.4722881    1.5562264    2.0703794   -2.2558618 
 3140000   0.92475777 5.5977626e-05   0.69508203  0.094327068            0   0.60075496    1.3524582    2.0475403    7.7796492 
 3145000    1.0372268 -2.2620147e-05   0.51823828  0.038684839            0   0.47955344    1.5169442    2.0351824  -0.28112062 
 3150000    1.0786951 -3.5633244e-05   0.46743955  0.027186154            0    0.4402534    1.5775916    2.0450312    -1.603813 
 3155000   0.97524773 -4.1102013e-05   0.57132358 0.0068274171            0   0.56449616    1.4262998    1.9976234   -2.2112228 
 3160000    1.1038096 -3.5040066e-05   0.38946206 5.8813954e-05            0   0.38940325    1.6143216    2.0037837   -1.5843191 
 3165000    1.0689815 -5.6829183e-06   0.45716387 0.0056499031            0   0.45151396    1.5633855    2.0205494    1.4386185 
 3170000   0.91743293 1.1613762e-05   0.66904984  0.041646504            0   0.62740333    1.3417457    2.0107955    3.2000447 
 3175000   0.97238976 -6.1295126e-05   0.59697714  0.016416839            0    0.5805603      1.42212    2.0190972   -4.2575238 
 3180000    1.0539242 -5.9931119e-05    0.4806981 0.00024810901            0   0.48044999    1.5413641    2.0220622   -4.1148844 
 3185000    1.0068453 8.0628867e-06   0.54249629            0            0   0.54249629    1.4725113    2.0150076    2.8406472 
 3190000   0.95662114 -2.410563e-05   0.59686556            0            0   0.59686556    1.3990584     1.995924  -0.47249252 
 3195000    1.0434025 9.9739688e-06   0.46667425  0.012826271            0   0.45384798    1.5259761    1.9926504    3.0139848 
 3200000    1.0202129 1.6368029e-05   0.51416735  0.056647249            0    0.4575201    1.4920614    2.0062288    3.6823149 
 3205000    1.0001324 -4.2956906e-05   0.57213522 0.0056080177            0    0.5665272    1.4626936    2.0348288   -2.3639584 
 3210000    1.0454617 -8.9013578e-06   0.55743129            0            0   0.55743129    1.5289877     2.086419    1.1749199 
 3215000    1.1408264 -1.8094759e-05   0.42562337            0            0   0.42562337    1.6684586     2.094082   0.24117867 
 3220000    1.1455731 3.0048676e-06   0.46291585            0            0   0.46291585    1.6754007    2.1383165     2.446015 
 3225000    1.2317683 5.4877215e-05   0.30164981            0            0   0.30164981    1.8014611    2.1031109    7.7225377 
 3230000    1.0385639 3.0173831e-05   0.60133541            0            0   0.60133541    1.5188998    2.1202352    5.2100355 
 3235000    1.0897919 3.1927138e-05   0.46445883  0.001719717            0   0.46273912    1.5938206    2.0582795    5.3276184 
 3240000   0.98893301 -3.6887715e-05   0.59969155   0.02049367            0   0.57919788    1.4463145    2.0460061   -1.7312959 
 3245000    1.0878631 -2.4303913e-05   0.46006113  0.027250309            0   0.43281082    1.5909999     2.051061  -0.43765966 
 3250000    1.0266217 8.3956207e-05   0.55288713  0.015895992            0   0.53699114    1.5014342    2.0543213    10.651437 
 3255000    1.0862428 4.9116041e-05   0.44735809 0.0088095661            0   0.43854853    1.5886301    2.0359882    7.0654708 
 3260000    1.0988876 -3.6507445e-05    0.4010718 0.0058755376            0   0.39519626    1.6071231    2.0081949   -1.7301674 
 3265000   0.99677101 1.004328e-05   0.55596767  0.013974294            0   0.54199337    1.4577776    2.0137453    3.0421771 
 3270000    1.0411031 0.00011459521   0.50458461  0.024922997            0   0.47966161    1.5226132    2.0271978    13.761747 
 3275000    1.1183029 -7.2585112e-06   0.40693154  0.015311712            0   0.39161983     1.635518    2.0424495     1.299178 
 3280000    1.0472884 -6.2643606e-05   0.51440169  0.016289796            0    0.4981119    1.5316593     2.046061   -4.3686443 
 3285000    1.0327476 -3.9676778e-05   0.48523286  0.034192778            0   0.45104008    1.5103934    1.9956262   -2.0672758 
 3290000       1.0166 2.6473736e-05   0.48282292  0.016756706            0   0.46606621    1.4867776    1.9696005     4.680511 
 3295000    1.0965272 6.8088122e-05   0.34846563  0.025538346            0   0.32292728     1.603671    1.9521366    8.9243602 
 3300000   0.99607541 -1.8989413e-05   0.49212561  0.018090441            0   0.47403517    1.4567603    1.9488859  0.004369965 
 3305000   0.95202871 -1.5006271e-05   0.51934285  0.025630744            0    0.4937121     1.392342    1.9116848   0.37504264 
 3310000   0.93970723 4.1981795e-05   0.50786664  0.011043824            0   0.49682282    1.3743218    1.8821885    6.1811243 
 3315000   0.97761233 9.5451042e-06   0.49671534 0.0036279573            0   0.49308738     1.429758    1.9264734     2.903892 
 3320000   0.95504817 -1.5761217e-05   0.54982155  0.018253977            0   0.53156757    1.3967579    1.9465795    0.3326309 
 3325000   0.91809096 4.3238085e-05   0.63180326    0.0376775            0   0.59412576     1.342708    1.9745113    6.4020912 
 3330000    1.0477899 6.5193959e-05   0.39178474  0.029570086            0   0.36221466    1.5323928    1.9241775    8.6000389 
 3335000     0.955729 7.8686232e-05   0.55584437  0.013296267            0    0.5425481    1.3977537     1.953598    10.011068 
 3340000   0.93333842 4.7963782e-05   0.60459982  0.015755847            0   0.58884397    1.3650074    1.9696073    6.8810986 
 3345000   0.97115365 -2.6971832e-05   0.54823316  0.012902937            0   0.53533022    1.4203122    1.9685454  -0.79337026 
 3350000     1.098406 -1.1867781e-05   0.36396007 0.0039888395            0   0.35997123    1.6064188    1.9703788   0.75511806 
 3355000   0.98460227 -1.3297077e-05   0.52940722 0.0045626785            0   0.52484454    1.4399808     1.969388    0.6077674 
 3360000   0.86983646 -5.3926838e-05    0.6812475  0.014551812            0   0.66669569    1.2721358    1.9533833   -3.5687249 
 3365000   0.97653116 -6.5005905e-05   0.52743837  0.016140854            0   0.51129752    1.4281768    1.9556152   -4.7009895 
 3370000    1.0905166 -4.0490476e-05   0.41655839  0.018726347            0   0.39783204    1.5948806     2.011439   -2.1347857 
 3375000    1.0224335 -1.0071491e-06   0.50887367  0.022108621            0   0.48676504     1.495309    2.0041827    1.9010506 
 3380000   0.89965421 3.0286614e-05   0.62853876   0.01001328            0   0.61852548    1.3157443    1.9442831    5.0456324 
 3385000    1.0159374 3.314518e-05   0.48524555 0.00089542213            0   0.48435013    1.4858084     1.971054    5.3651204 
 3390000   0.93987632 -2.3076938e-05   0.57726842 0.0030694946            0   0.57419892    1.3745691    1.9518375  -0.41124095 
 3395000    1.0561583 -4.7005787e-05   0.39813184  0.020626665            0   0.37750517    1.5446315    1.9427633   -2.8706293 
 3400000   0.90291405 -4.6067109e-05   0.60273529  0.070519686            0    0.5322156    1.3205118    1.9232471   -2.7940249 
 3405000   0.98204892 9.4072189e-06   0.48913686  0.055461649            0   0.43367522    1.4362465    1.9253834    2.8886826 
 3410000   0.89109363 2.8224813e-05   0.61766443  0.010967515            0   0.60669691    1.3032244    1.9208889    4.8111098 
 3415000   0.95242641 1.761385e-05   0.50319345 0.00023234702            0    0.5029611    1.3929236    1.8961171    3.6997753 
 3420000   0.89782677 3.6497146e-05   0.57415362  0.016276172            0   0.55787745    1.3130717    1.8872253     5.624533 
 3425000   0.99528345 -2.3967646e-05   0.48592329  0.026749826            0   0.45917346     1.455602    1.9415253  -0.51276161 
 3430000   0.94571455 -1.1192145e-05   0.59362342 0.0090805116            0   0.58454291    1.3831075    1.9767309   0.83065533 
 3435000   0.94935062 6.6070867e-05   0.57974062 0.0022333251            0   0.57750729    1.3884253    1.9681659    8.7338226 
 3440000    1.0097809 7.2199249e-05   0.45325434 0.0021984317            0   0.45105591    1.4768045    1.9300589    9.3232619 
 3445000   0.99232052 8.0783807e-05   0.47245694   0.02621141            0   0.44624553    1.4512688    1.9237257    10.195987 
 3450000   0.92759087 9.8245644e-05   0.58249672  0.027214582            0   0.55528214    1.3566017    1.9390984    11.999452 
 3455000   0.99839471 3.4841021e-05   0.44415955  0.008337247            0   0.43582231    1.4601523    1.9043118    5.4720324 
 3460000    1.0121863 -7.4252963e-05   0.47454528   0.01451482            0   0.46003046    1.4803225    1.9548677   -5.6486357 
 3465000     1.053801 -4.6568721e-05   0.45022281 0.0093642828            0   0.44085853     1.541184    1.9914068   -2.7772302 
 3470000   0.94440695 -4.7808207e-05    0.6325055  0.010537396            0    0.6219681    1.3811952    2.0137007   -2.8818597 
 3475000   0.95130517 -5.4765104e-05   0.59011444  0.031948423            0   0.55816601    1.3912838    1.9813982   -3.6265485 
 3480000    1.0422344 -5.7957216e-05   0.46451803  0.016359442            0   0.44815859    1.5242678    1.9887858   -3.9460331 
 3485000   0.97793401 -7.7957994e-05   0.56802788  0.013636847            0   0.55439103    1.4302285    1.9982564   -5.9846423 
 3490000   0.96862564 -1.3036714e-05   0.57529854 0.0060281703            0   0.56927037     1.416615    1.9919135   0.65695401 
 3495000     1.024662 5.8314513e-05   0.50105125 0.0065469239            0   0.49450433    1.4985682    1.9996195    7.9710256 
 3500000    1.0829526 -2.8669555e-05   0.41817971 0.0032365379            0   0.41494317    1.5838181    2.0019979  -0.93376461 
 3505000     1.106659 2.1608648e-05   0.36790482 0.0020661677            0   0.36583865    1.6184888    1.9863936    4.1991192 
 3510000    1.0419752 -2.077612e-06   0.48516683 0.0092117845            0   0.47595505    1.5238888    2.0090556    1.7963082 
 3515000   0.90956921 -0.00017342287   0.71569897  0.010442457            0   0.70525651     1.330245    2.0459439   -15.712558 
 3520000    1.0127072 -4.0194021e-05   0.53033343 0.0057019789            0   0.52463145    1.4810842    2.0114176   -2.1044501 
 3525000    1.0335663 2.3397385e-05   0.53122139 0.0074438471            0   0.52377754    1.5115907    2.0428121    4.4387044 
 3530000   0.98615953 5.9370937e-05    0.5641374  0.010082915            0   0.55405449    1.4422583    2.0063957    8.0859797 
 3535000      0.97005 5.9183875e-05   0.55040216  0.023064044            0   0.52733812    1.4186981    1.9691003    8.0295291 
 3540000   0.92381873 1.410043e-05   0.62522415  0.083812603            0   0.54141155    1.3510849     1.976309     3.420193 
 3545000   0.90553394 5.9658756e-05   0.64129566 0.0064567847            0   0.63483887    1.3243434     1.965639    8.0746957 
 3550000   0.91015747 1.8556166e-05   0.64307034 0.00041731461            0   0.64265302    1.3311053    1.9741756    3.8743271 
 3555000   0.97596762 -4.2093619e-05    0.5190804 0.0063988715            0   0.51268153    1.4273526    1.9464331   -2.3639536 
 3560000   0.92319535 -9.0502908e-05   0.57372246  0.014814677            0   0.55890778    1.3501732    1.9238957   -7.3436021 
 3565000   0.90688737 -5.5800721e-05   0.56815812  0.011769205            0   0.55638891    1.3263228    1.8944809    -3.819513 
 3570000   0.84623082 6.7090582e-05   0.66192645  0.011251228            0   0.65067523    1.2376126     1.899539    8.7696147 
 3575000   0.90756405 3.2095429e-05   0.57103915  0.016140754            0    0.5548984    1.3273124    1.8983516    5.1849235 
 3580000   0.95874906 -1.5599768e-05   0.54324974 0.0024565296            0   0.54079321    1.4021705    1.9454202   0.34800397 
 3585000    1.0067266 1.4529873e-05   0.49273971            0            0   0.49273971    1.4723376    1.9650773    3.4529364 
 3590000   0.86559395 1.4964949e-05   0.72529031  0.010465624            0   0.71482468    1.2659311    1.9912215    3.5236322 
 3595000   0.91777939 -9.5228299e-05   0.67611443  0.037206256            0   0.63890817    1.3422524    2.0183668    -7.733011 
 3600000    1.0357564 -5.7205463e-05   0.51458585  0.023931659            0   0.49065419    1.5147937    2.0293796   -3.8284599 
 3605000    1.0645389 6.3822889e-05   0.50655976  0.036876374            0   0.46968338    1.5568882     2.063448    8.5989118 
 3610000      1.02876 -2.758436e-05   0.62129458  0.015274487            0   0.60602009    1.5045615    2.1258561  -0.69878239 
 3615000   0.90042852 -0.00012491471   0.72317663 0.00012168741            0   0.72305494    1.3168767    2.0400533   -10.751213 
 3620000   0.98546368 -5.9572651e-05   0.60961587            0            0   0.60961587    1.4412406    2.0508565    -4.049383 
 3625000   0.98540058 8.2025675e-06   0.59985662            0            0   0.59985662    1.4411483     2.041005    2.8809479 
 3630000     1.013955 6.3765779e-05   0.59571397            0            0   0.59571397    1.4829091    2.0786231    8.6082389 
 3635000    1.0922818 5.8235682e-05   0.46656393 0.0058646446            0   0.46069928    1.5974622    2.0640261    8.0273599 
 3640000    1.0396186 -4.5525824e-05   0.49454923  0.050325181            0   0.44422405    1.5204422    2.0149915   -2.6468529 
 3645000    1.0035033 -7.0735177e-05   0.54772996  0.030153855            0   0.51757611    1.4676236    2.0153535   -5.2279286 
 3650000    1.0215286 -1.503976e-05   0.53426405 0.0010057786            0   0.53325827    1.4939855    2.0282496   0.48817818 
 3655000   0.98045589 1.7218398e-05   0.68016428  0.013540872            0   0.66662341    1.4339167     2.114081     3.877245 
 3660000    0.9131459 3.390013e-05   0.73931021  0.063545364            0   0.67576485    1.3354759    2.0747861    5.5461594 
 3665000    1.0049703 -6.6640884e-05   0.65220947  0.028438894            0   0.62377058    1.4697691    2.1219786    -4.702048 
 3670000   0.96881253 -3.6534708e-05   0.69441091 0.0021810538            0   0.69222986    1.4168883    2.1112992   -1.6298549 
 3675000    1.0574961 3.4933506e-05   0.56020979  0.012088595            0   0.54812119     1.546588    2.1067978    5.6839888 
 3680000    0.8840563 5.6448694e-05   0.82762088  0.008920983            0   0.81869989    1.2929323    2.1205532    7.9008995 
 3685000    1.1345115 -7.4239716e-05   0.44258596  0.002414565            0   0.44017139    1.6592231     2.101809   -5.5003379 
 3690000     1.043401 -1.2163527e-08    0.5282472  0.010240026            0   0.51800717     1.525974    2.0542212    2.0529757 
 3695000   0.95652401 5.8216288e-05   0.72107215  0.027994393            0   0.69307776    1.3989164    2.1199885    8.0813365 
 3700000   0.99902381 -3.3239495e-05   0.63819602  0.019139191            0   0.61905683    1.4610723    2.0992683    -1.304456 
 3705000   0.97005244 1.7386298e-05   0.68293673 0.0017800531            0   0.68115667    1.4187017    2.1016384    3.8819953 
 3710000   0.98188821 4.211234e-05   0.69547411  0.044860348            0   0.65061376    1.4360115    2.1314856    6.4437893 
 3715000   0.92644497 9.5850858e-06   0.78297938  0.056232345            0   0.72674703    1.3549258    2.1379051    3.1194179 
 3720000   0.97772519 6.3654798e-05   0.68586378  0.015352397            0   0.67051139    1.4299231    2.1157869    8.6340382 
 3725000   0.97303504 0.00015975781   0.70946277  0.022001858            0   0.68746092    1.4230637    2.1325265    18.491726 
 3730000    1.0196297 9.7705893e-05   0.56377569  0.025712123            0   0.53806357    1.4912084    2.0549841    12.060068 
 3735000   0.96810693 1.6782507e-05   0.64295103  0.069733959            0   0.57321707    1.4158564    2.0588074    3.7773361 
 3740000   0.93223345 1.9304745e-06   0.64877034  0.060970892            0   0.58779945    1.3633914    2.0121618    2.2098423 
 3745000    1.0261646 0.00010255268   0.54594864 0.0078901979            0   0.53805844    1.5007658    2.0467144    12.548108 
 3750000   0.92448805 7.0270374e-05   0.66585885  0.031285613            0   0.63457324    1.3520638    2.0179226     9.213609 
 3755000    1.0248365 2.9764845e-05   0.54747054  0.022196828            0   0.52527371    1.4988234    2.0462939    5.0942141 
 3760000   0.93485908 -2.3010304e-05    0.7207523 0.00048088225            0   0.72027141    1.3672314    2.0879837  -0.26827143 
 3765000   0.98420405 -6.3811994e-05   0.66895468            0            0   0.66895468    1.4393984    2.1083531   -4.4259951 
 3770000   0.98388708 1.9560467e-05   0.64399116 0.0014759249            0   0.64251523    1.4389349     2.082926    4.0859178 
 3775000   0.98540058 7.1287642e-05   0.60990928  0.013958675            0    0.5959506    1.4411484    2.0510576    9.3509122 
 3780000   0.98800069 5.3990943e-05   0.57837798  0.018400146            0   0.55997783     1.444951     2.023329    7.5520015 
 3785000   0.82116987 9.3728018e-05   0.80785486  0.054528321            0   0.75332654    1.2009609    2.0088158    11.606565 
 3790000    0.9595272 3.3277391e-05   0.58372965  0.037191407            0   0.54653824    1.4033085    1.9870382     5.394643 
 3795000   0.92237975 -4.8443143e-05   0.63311024 0.0017258095            0   0.63138443    1.3489804    1.9820906   -2.9784872 
 3800000   0.93193443 -3.4779596e-05   0.61592335 0.0068274433            0   0.60909591    1.3629541    1.9788775   -1.5825532 
 3805000   0.73503858 -9.948902e-05    0.8640408  0.023150019            0   0.84089078    1.0749939    1.9390347   -8.2486409 
 3810000   0.88867188 2.9021328e-05   0.66607678  0.026848828            0   0.63922795    1.2996826    1.9657594    4.9375434 
 3815000   0.85944472 8.5167164e-05   0.69725282 0.0050591513            0   0.69219367    1.2569379    1.9541907    10.675308 
 3820000   0.89836199 5.961607e-05   0.64546128 0.0075565437            0   0.63790474    1.3138544    1.9593157    8.0640012 
 3825000   0.92306123 6.0147637e-05   0.60414353  0.011154718            0   0.59298881     1.349977    1.9541206    8.1132386 
 3830000   0.86364199 6.1496569e-05   0.72580683 0.0099621541            0   0.71584468    1.2630764    1.9888832    8.2861319 
 3835000   0.92022682 0.00011258239   0.62911973 0.0093344569            0   0.61978528    1.3458317    1.9749515    13.503388 
 3840000   0.99674811 2.9803875e-05   0.56526585  0.018489204            0   0.54677664    1.4577441      2.02301    5.0749268 
 3845000   0.88581691 9.4882037e-05   0.74703556  0.016438752            0   0.73059681    1.2955072    2.0425428    11.758463 
 3850000   0.99438671 1.2605922e-06   0.61189592 0.0031119784            0   0.60878394    1.4542906    2.0661865    2.1952711 
 3855000    1.1252548 -3.9825286e-05   0.40970794  0.011406455            0   0.39830148    1.6456851    2.0553931   -2.0227162 
 3860000   0.95506888 -1.0269252e-05   0.70225207  0.027277139            0   0.67497493    1.3967882    2.0990403    1.0474689 
 3865000   0.96272434 -1.1068031e-05   0.69511222 0.0082408533            0   0.68687137    1.4079844    2.1030966   0.96973024 
 3870000    1.0202283 7.5544667e-05   0.65024672 0.0092768689            0   0.64096985    1.4920839    2.1423306    9.8781045 
 3875000   0.95007823 3.2766045e-05   0.71900726  0.010401351            0   0.70860591    1.3894894    2.1084967    5.4637397 
 3880000   0.92285764 3.7512418e-05   0.77462438 0.0061428148            0   0.76848157    1.3496793    2.1243037    5.9655753 
 3885000    1.0127201 1.431722e-05   0.65265277 0.0075399856            0   0.64511279    1.4811031    2.1337559    3.5998392 
 3890000    1.0171368 7.8768362e-05   0.64918432  0.034590417            0    0.6145939    1.4875625    2.1367468    10.202627 
 3895000   0.91328192 5.975419e-05   0.81591147  0.044105115            0   0.77180636    1.3356748    2.1515863    8.2704153 
 3900000    1.0164097 -7.4403636e-06   0.61347371  0.049273284            0   0.56420043    1.4864992    2.0999729    1.3380796 
 3905000    1.0151983 -2.6508671e-05   0.58061897 0.0014043116            0   0.57921466    1.4847275    2.0653465  -0.64914146 
 3910000   0.89916088 -2.3198586e-05   0.76228209            0            0   0.76228209    1.3150228    2.0773049  -0.29823032 
 3915000   0.91923477 4.5886986e-06   0.70428633 2.5946317e-05            0   0.70426038    1.3443808    2.0486672    2.5185499 
 3920000   0.99844276 3.5786379e-05   0.56915006  0.018680747            0   0.55046932    1.4602225    2.0293726    5.6938979 
 3925000   0.85307479 -1.7706434e-05   0.79711421  0.035234156            0   0.76188006    1.2476219    2.0447361   0.23159727 
 3930000   0.96989399 -7.0586544e-05   0.61245408 0.0024003678            0   0.61005371      1.41847     2.030924   -5.1971381 
 3935000    1.1033845 6.6632703e-05    0.4257965 0.00037767188            0   0.42541883    1.6136998    2.0394963    8.8626851 
 3940000   0.85986477 6.7318776e-05   0.79341381 0.00037412564            0   0.79303968    1.2575522     2.050966    8.9444087 
 3945000   0.86875607 -1.510292e-05    0.7872724  0.023382534            0   0.76388987    1.2705557    2.0578281   0.51128919 
 3950000    0.9523489 -1.6774138e-05   0.65671299  0.044045686            0    0.6126673    1.3928103    2.0495233   0.33185157 
 3955000    1.0345311 1.2868775e-05   0.57890972  0.013388015            0    0.5655217    1.5130018    2.0919115    3.4096741 
 3960000   0.76351196 4.919342e-06   0.94742122  0.040871896            0   0.90654932    1.1166362    2.0640575    2.5677981 
 3965000     0.884609 -4.2899681e-05   0.76998624  0.054525732            0   0.71546051    1.2937407    2.0637269   -2.3292005 
 3970000   0.91402796 4.850776e-05   0.67447949    0.0248613            0   0.64961819    1.3367659    2.0112454      6.97844 
 3975000     1.059398 -3.5069873e-05   0.51292838 0.0097212809            0    0.5032071    1.5493696     2.062298    -1.528857 
 3980000   0.85886842 -2.7362297e-05   0.82174835  0.016607529            0   0.80514082    1.2560951    2.0778434  -0.72405578 
 3985000   0.94874059 4.7787253e-05   0.67336591  0.022417983            0   0.65094792    1.3875331     2.060899    6.9543138 
 3990000    1.0241891 3.5272778e-05   0.57389548  0.034673475            0   0.53922201    1.4978766    2.0717721    5.6837046 
 3995000    1.0056268 -0.00013012206   0.61568429  0.076366352            0   0.53931794    1.4707292    2.0864135   -11.238085 
 4000000    1.0523123 -5.7177473e-05   0.62485327  0.066847883            0   0.55800539    1.5390068    2.1638601   -3.6911132 
 4005000    1.0688791 -7.8050326e-05   0.57094551 0.0049644771            0   0.56598103    1.5632357    2.1341812   -5.8581722 
 4010000    1.0317125 -3.4584835e-05    0.6038787  0.012894849            0   0.59098385    1.5088796    2.1127583   -1.4287288 
 4015000   0.95958434 -8.6410559e-05   0.70043061  0.026424489            0   0.67400612    1.4033921    2.1038227   -6.7446185 
 4020000   0.95287192 1.2555976e-05   0.70095963  0.018136512            0   0.68282312    1.3935752    2.0945348    3.3802667 
 4025000   0.99228266 5.5148753e-06   0.68589984 0.0021677735            0   0.68373206    1.4512134    2.1371132    2.7018365 
 4030000    1.0176274 4.3933307e-05   0.63997854 0.00085599253            0   0.63912255    1.4882801    2.1282587    6.6270293 
 4035000     1.047154 -7.8812094e-05   0.59579623 1.7678939e-05            0   0.59577855    1.5314627    2.1272589   -5.9430995 
 4040000    0.9660752 -4.2559794e-05   0.73099718            0            0   0.73099718     1.412885    2.1438822   -2.2142407 
 4045000   0.95167952 1.3703437e-05   0.69958792            0            0   0.69958792    1.3918313    2.0914192    3.4946511 
 4050000   0.94421453 7.0988044e-05   0.72116296 0.0013975243            0   0.71976544    1.3809137    2.1020767    9.3712524 
 4055000    1.0662707 -9.5917837e-05   0.49470659  0.012875853            0   0.48183074    1.5594209    2.0541275    -7.767859 
 4060000   0.93308518 -8.2752269e-05   0.67898638   0.01414536            0   0.66484102    1.3646371    2.0436235   -6.4302089 
 4065000    1.0061243 2.0748373e-05   0.61937771 0.0098931509            0   0.60948456    1.4714567    2.0908345    4.2154678 
 4070000    1.1222527 -3.5722313e-05   0.43100711 0.0024751711            0   0.42853194    1.6412945    2.0723016   -1.5856632 
 4075000      1.08474 8.9327537e-05   0.51705318  0.019651074            0   0.49740211    1.5864322    2.1034854    11.250625 
 4080000   0.91098179 9.8356244e-05    0.7352636  0.030338341            0   0.70492526    1.3323109    2.0675745    12.139254 
 4085000    1.0114599 -2.0438747e-05   0.54668925 0.0037619418            0   0.54292731    1.4792602    2.0259494 -0.066978318 
 4090000    1.0749776 -1.0358514e-05   0.47450912 0.0022993292            0   0.47220979    1.5721547    2.0466638   0.98595198 
 4095000    1.0097794 3.737881e-05   0.55699886  0.010069809            0   0.54692905    1.4768024    2.0338013    5.8613915 
 4100000   0.87325895 1.5722242e-05   0.68176083  0.015713085            0   0.66604775    1.2771412    1.9589021    3.5688596 
 4105000   0.83729271 4.9587961e-05   0.74817882  0.027314026            0    0.7208648    1.2245406    1.9727194    7.0505266 
 4110000    1.0063046 0.0001319687   0.51347161  0.014759878            0   0.49871174    1.4717204     1.985192    15.498787 
 4115000   0.94202986 1.7853227e-05   0.61701944  0.024890995            0   0.59212845    1.3777187    1.9947381    3.8229085 
 4120000   0.89968302 -0.00010821738   0.68743851  0.015140283            0   0.67229822    1.3157864    2.0032249   -9.0782347 
 4125000    1.1557305 -5.4602656e-05   0.34509335 0.0017665837            0   0.34332677    1.6902559    2.0353492   -3.5559628 
 4130000   0.91277845 -2.5283149e-05   0.72307987 2.1202892e-05            0   0.72305866    1.3349385    2.0580183  -0.53097615 
 4135000    1.0785446 -8.5886677e-06   0.53784132            0            0   0.53784132    1.5773715    2.1152128    1.2357332 
 4140000    1.0141518 -6.8676464e-05   0.64053654            0            0   0.64053654     1.483197    2.1237335   -4.9087364 
 4145000   0.96389854 -0.00012254257   0.71333971            0            0   0.71333971    1.4097016    2.1230413   -10.425318 
 4150000    1.0309372 -6.8659829e-05   0.60497489            0            0   0.60497489    1.5077457    2.1127206   -4.9180459 
 4155000    1.0199959 2.3654657e-05   0.63770618            0            0   0.63770618     1.491744    2.1294502    4.5516871 
 4160000   0.91929952 2.3348415e-05   0.79256904 1.3597074e-05            0   0.79255545    1.3444756    2.1370446    4.5279223 
 4165000   0.94891819 -6.8769829e-05   0.71497122 0.0012028118            0    0.7137684    1.3877929    2.1027641   -4.9392665 
 4170000    1.2219011 -3.3107022e-05   0.34229751  0.008951585            0   0.33334592    1.7870304    2.1293279   -1.2608312 
 4175000    1.0332232 -2.5137933e-05   0.60310372   0.01429765            0   0.58880607    1.5110889    2.1141926   -0.4599317 
 4180000   0.90023916 -7.6698577e-05   0.78864622  0.051438284            0   0.73720794    1.3165998     2.105246   -5.7486883 
 4185000    1.0036457 2.7126689e-05   0.63723417  0.028142214            0   0.60909195    1.4678318     2.105066    4.8828389 
 4190000    1.0716141 7.375492e-05   0.52637788 6.2071705e-05            0   0.52631581    1.5672357    2.0936136    9.6461173 
 4195000    1.1155803 6.3810544e-05   0.47075529 0.0016889623            0   0.46906633    1.6315362    2.1022914    8.6364911 
 4200000   0.90985499 5.2552275e-05   0.74280265  0.006986464            0   0.73581619    1.3306629    2.0734656    7.4548186 
 4205000   0.95405201 1.2710357e-05   0.68912325 0.0044276479            0    0.6846956    1.3953011    2.0844243    3.3859648 
 4210000    0.9583364 7.927386e-06   0.64600003 0.0014164673            0   0.64458356     1.401567     2.047567    2.8593313 
 4215000   0.89765077 6.0748953e-05   0.76163002 0.0054322532            0   0.75619777    1.3128143    2.0744443    8.2951371 
 4220000   0.97934585 0.00013857721   0.61629254  0.016568203            0   0.59972434    1.4322933    2.0485859    16.238893 
 4225000    0.9040933 0.00013256239   0.70101457  0.053647622            0   0.64736695    1.3222365     2.023251     15.59764 
 4230000   0.92853632 8.8768008e-05   0.64893456  0.013073665            0   0.63586089    1.3579844    2.0069189    11.096763 
 4235000   0.97505599 0.00010105598   0.55931045 0.0026656375            0   0.55664481    1.4260194    1.9853298    12.333462 
 4240000   0.94043098 3.3587571e-05   0.60434316 0.0031436815            0   0.60119947    1.3753803    1.9797235    5.4190907 
 4245000   0.95555996 -0.00012995106   0.64694216 0.0012781356            0   0.64566402    1.3975064    2.0444486    -11.26254 
 4250000    1.0342108 -8.2476074e-05   0.60076289 0.00029750341            0   0.60046539    1.5125332    2.1132961   -6.3322539 
 4255000    1.0591458 3.2655142e-05   0.57409338  0.036640663            0   0.53745272    1.5490007    2.1230941    5.4669807 
 4260000    1.0640307 5.5697459e-05   0.53729523  0.041736586            0   0.49555865    1.5561449    2.0934401    7.7968599 
 4265000   0.92661981 3.9249432e-05   0.73735795 0.0059140038            0   0.73144394    1.3551815    2.0925394    6.1116813 
 4270000   0.93830091 -3.0463846e-05   0.74048109 0.0013224381            0   0.73915865    1.3722651    2.1127462   -1.0067517 
 4275000   0.98801445 6.1833301e-05   0.68472602  0.002592138            0   0.68213388    1.4449711    2.1296971    8.4614272 
 4280000     1.070673 0.00011729235   0.55059427 0.0091189032            0   0.54147536    1.5658593    2.1164536     14.12719 
 4285000    1.0745488 1.8786023e-05   0.57635648  0.035868196            0   0.54048828    1.5715276    2.1478841    4.0715729 
 4290000   0.95900071 -3.115041e-05   0.66523071  0.030630076            0   0.63460063    1.4025385    2.0677692   -1.1220327 
 4295000    1.0298364 5.7356181e-05   0.55002363 0.0023813288            0    0.5476423    1.5061357    2.0561594    7.9294323 
 4300000    1.1008448 4.7415339e-05   0.46686361            0            0   0.46686361    1.6099855    2.0768492    6.9321799 
 4305000    1.0419746 1.1051976e-05    0.5514102 5.3027807e-07            0   0.55140967    1.5238879    2.0752981    3.2070204 
 4310000   0.92011589 4.9495861e-06   0.71933205  0.012330358            0   0.70700169    1.3456695    2.0650015    2.5718391 
 4315000    1.0836046 -5.5481912e-05   0.51168004  0.025940059            0   0.48573998    1.5847717    2.0964517    -3.584896 
 4320000    1.0193451 -4.1098334e-05   0.58309276 0.0065426477            0   0.57655011    1.4907923     2.073885   -2.1345843 
 4325000   0.97242223 -9.0988508e-06    0.6365416 0.0022655264            0   0.63427608    1.4221675    2.0587091    1.1269868 
 4330000   0.92000582 -2.9164981e-05   0.69107902 0.00024034958            0   0.69083867    1.3455085    2.0365875  -0.94990648 
 4335000    1.0101901 2.7074146e-05   0.53073839 0.0043748989            0   0.52636349     1.477403    2.0081414    4.7805339 
 4340000    1.0529153 8.0573227e-06   0.48623683  0.018259378            0   0.46797745    1.5398887    2.0261255    2.8511954 
 4345000    1.0990872 2.1918168e-06   0.42973926   0.03465571            0   0.39508356     1.607415    2.0371542    2.2615963 
 4350000   0.90210842 2.9129042e-05   0.77533698  0.021586415            0   0.75375056    1.3193336    2.0946705    5.0774844 
 4355000    1.0913794 -6.4381859e-06   0.53105614 0.0025406291            0   0.52851551    1.5961424    2.1271985    1.4679283 
 4360000   0.89737506 5.4916642e-05     0.801256 0.0021631366            0   0.79909287     1.312411     2.113667    7.7371312 
 4365000     1.101253 -1.2501317e-05    0.5085185 0.0079374786            0   0.50058102    1.6105826    2.1191011   0.83896621 
 4370000   0.95509566 -5.7658207e-06   0.71925098  0.010460216            0   0.70879076    1.3968274    2.1160784    1.5256584 
 4375000    1.0669839  0.000150969   0.60226324  0.043020829            0   0.55924242    1.5604639    2.1627272    17.621952 
 4380000    1.0543733 9.4350173e-05   0.62772832  0.026612701            0   0.60111562    1.5420209    2.1697492    11.831207 
 4385000    1.1244529 -1.2735919e-06   0.54971306 0.0045354124            0   0.54517765    1.6445124    2.1942254    2.0638096 
 4390000   0.99833452 -9.4526251e-05   0.75128916 0.00023164354            0   0.75105752    1.4600642    2.2113534   -7.4681347 
 4395000    1.1164815 -2.2872753e-05   0.56706148            0            0   0.56706148    1.6328543    2.1999157  -0.14225412 
 4400000    1.0798566 7.4326706e-05    0.6193256            0            0    0.6193256    1.5792903    2.1986159    9.8096705 
 4405000    1.1618247 -2.5645697e-05   0.52522495 0.0022673466            0   0.52295761    1.6991686    2.2243935  -0.40172591 
 4410000    1.1390725 -7.0036476e-05   0.61282252  0.012739517            0     0.600083    1.6658936    2.2787161    -4.893019 
 4415000    1.1503468 -1.6667392e-05   0.62612154  0.013736526            0   0.61238501    1.6823822    2.3085037   0.60176279 
 4420000    1.2228431 -5.3565329e-05   0.52380416  0.017831201            0   0.50597296     1.788408    2.3122122   -3.1728775 
 4425000    1.1107721 -6.6647757e-06   0.70228903  0.054378598            0   0.64791043    1.6245041    2.3267932    1.6443201 
 4430000    1.0841087 0.00014191481   0.74041648  0.025886813            0   0.71452967     1.585509    2.3259255    16.858002 
 4435000    1.2718036 6.2548751e-05   0.47475621  0.052037058            0   0.42271915    1.8600128     2.334769    8.7397611 
 4440000    1.2375007 -1.1474136e-05   0.52209964 0.0022165451            0    0.5198831    1.8098448    2.3319444    1.1569929 
 4445000    1.2003309 -7.0153295e-06   0.59517951  0.014593113            0    0.5805864     1.755484    2.3506635    1.6322937 
 4450000    1.1357612 -9.1781967e-05   0.67574623  0.056917655            0   0.61882858    1.6610507    2.3367969   -7.0616765 
 4455000    1.1629098 -3.740361e-05   0.67669681  0.027986585            0   0.64871022    1.7007556    2.3774524   -1.4526773 
 4460000    1.1634462 9.4587456e-06   0.62225841 0.0046102716            0   0.61764814      1.70154    2.3237984     3.292374 
 4465000    1.1352323 -2.6412258e-05   0.64599313  0.012511251            0   0.63348188    1.6602772    2.3062703  -0.39834495 
 4470000    1.1635512 7.2204356e-05    0.6038653   0.01331119            0   0.59055411    1.7016937     2.305559    9.6992851 
 4475000    1.1849387 5.2824471e-05   0.60196801 0.0028320416            0   0.59913597    1.7329728    2.3349408    7.7441666 
 4480000    1.0625997 -6.3283297e-05   0.79160893  0.047574069            0   0.74403486     1.554052     2.345661   -4.1345486 
 4485000    1.0886745 1.1211944e-05   0.72419515  0.086391093            0   0.63780406    1.5921864    2.3163816    3.4644846 
 4490000     1.159731 -1.017757e-05   0.64368676  0.033973465            0   0.60971329    1.6961065    2.3397933    1.2976101 
 4495000    1.2130106 -3.7025612e-05    0.5786456  0.021863013            0   0.55678259     1.774028    2.3526736   -1.4387491 
 4500000    1.1256704 -4.9058406e-05   0.68481576  0.054598665            0   0.63021709    1.6462929    2.3311087   -2.6924721 
 4505000    1.1036542 4.6044151e-05   0.70930355  0.048784869            0   0.66051868    1.6140943    2.3233979    7.0383189 
 4510000    1.1655626 1.9997487e-05   0.57443007 0.0040174545            0   0.57041262    1.7046352    2.2790653     4.326808 
 4515000    1.0869571 2.3806407e-05   0.68222064 0.0040231185            0   0.67819752    1.5896747    2.2718953    4.7096714 
 4520000    1.1233589 1.3466743e-05   0.63435798   0.01385489            0   0.62050309    1.6429124    2.2772704    3.6562649 
 4525000    1.0412236 3.7067882e-05   0.74102283  0.045393028            0    0.6956298    1.5227896    2.2638124    6.0595635 
 4530000    1.1300059 1.2842156e-05   0.62516975  0.042982584            0   0.58218717    1.6526336    2.2778033    3.5928401 
 4535000    1.2241376 8.4577394e-07   0.50294774  0.010965545            0   0.49198219    1.7903012     2.293249    2.3798562 
 4540000    1.1261414 -6.4295114e-05   0.67750764  0.016409698            0   0.66109794    1.6469817    2.3244894   -4.2593303 
 4545000    1.1045582 -0.00012461607   0.70262883 0.0082415763            0   0.69438725    1.6154164    2.3180452   -10.442641 
 4550000    1.1864174 -0.00010472397    0.6027145 0.0023969798            0   0.60031752    1.7351354    2.3378499   -8.3858851 
 4555000    1.0996008 -0.00010700581   0.69166565  0.065209852            0   0.62645579    1.6081662    2.2998319   -8.6575626 
 4560000    1.1466351 -2.7990621e-06   0.58358394  0.058718041            0   0.52486589    1.6769538    2.2605377    1.9739138 
 4565000    1.0822677 -2.2245433e-05   0.72153514  0.021744975            0   0.69979016    1.5828165    2.3043516  0.026419229 
 4570000    1.0544523 2.322851e-05   0.76068264  0.005542838            0   0.75513981    1.5421365    2.3028191    4.6814186 
 4575000    1.2217125 1.8780183e-05   0.48678822 0.00049406674            0   0.48629416    1.7867546    2.2735428    4.1966336 
 4580000    1.2711065 4.5251561e-05   0.41069068            0            0   0.41069068    1.8589933    2.2696839    6.9034438 
 4585000    1.1453842 3.0527147e-05   0.58875649            0            0   0.58875649    1.6751244    2.2638809    5.3898608 
 4590000    0.9776855 -0.00012968464   0.83590802            0            0   0.83590802     1.429865    2.2657731   -11.013934 
 4595000    1.0495319 -0.00012414112   0.75352352 7.0748599e-05            0   0.75345278    1.5349404    2.2884639   -10.423587 
 4600000    1.0749836 5.0750393e-06   0.70945439 0.0010090898            0    0.7084453    1.5721635    2.2816178    2.8013019 
 4605000    1.1543892 1.7743925e-05   0.61758432 0.0015396032            0   0.61604472    1.6882942    2.3058786    4.1228565 
 4610000    1.1609935 5.7371832e-06   0.58117953 0.00057325207            0   0.58060628     1.697953    2.2791325    2.8666201 
 4615000    1.0902703 -6.9698303e-05   0.67819325 0.0049982201            0   0.67319503    1.5945204    2.2727136   -4.8643926 
 4620000    1.1184455 -6.595127e-05   0.64436511  0.035779015            0    0.6085861    1.6357265    2.2800916   -4.4733184 
 4625000    1.1416499 3.8241799e-05   0.61725614  0.025194016            0   0.59206213    1.6696629    2.2869191    6.2028793 
 4630000    1.0626479 2.6305541e-05   0.69787099 0.0040030018            0   0.69386799    1.5541225    2.2519935    4.9456809 
 4635000    1.1316958 2.5630507e-05   0.70917785 0.0037036167            0   0.70547424     1.655105    2.3642829    4.9888468 
 4640000     1.151363 -1.0826075e-05   0.72643182 0.0048007329            0   0.72163109    1.6838684    2.4103002    1.3017101 
 4645000    1.2297555 -4.9625787e-05   0.62080392  0.029169121            0    0.5916348    1.7985175    2.4193214   -2.6623592 
 4650000    1.1080621 -8.1936302e-06   0.78248975  0.066331177            0   0.71615858    1.6205408    2.4030305    1.5640028 
 4655000    1.0899131 7.2491876e-06   0.81376716  0.081490383            0   0.73227678    1.5939978     2.407765    3.1500818 
 4660000    1.1936473 -5.6078024e-06   0.70282068   0.04516194            0   0.65765874    1.7457092    2.4485299    1.8742909 
 4665000    1.2232054 6.0197149e-05   0.70946163  0.052854774            0   0.65660685    1.7889379    2.4983995    8.6625875 
 4670000    1.3083963 -3.5379429e-05    0.6387116  0.025427936            0   0.61328366    1.9135296    2.5522412   -1.0706124 
 4675000    1.2455854 1.0580047e-05   0.73600676 0.0079495054            0   0.72805725    1.8216687    2.5576755    3.6410723 
 4680000    1.2912189 0.0001672772   0.66563277 0.0092598822            0   0.65637289    1.8884077    2.5540405    19.683226 
 4685000     1.315143 7.3420734e-05   0.60163322 0.0032139839            0   0.59841923    1.9233967    2.5250299    10.043313 
 4690000    1.1899531 3.7993828e-05   0.76060308 0.00028629513            0   0.76031679    1.7403063    2.5009094    6.3914775 
 4695000    1.1761513 -1.4472629e-05   0.75769539            0            0   0.75769539    1.7201213    2.4778167   0.99581955 
 4700000     1.215971 9.4204739e-05   0.66096421 0.0022765751            0   0.65868763    1.7783576    2.4393218    12.085887 
 4705000    1.2230961 5.808601e-05   0.58613528 0.0024954587            0   0.58363983     1.788778    2.3749133    8.3229207 
 4710000    1.1315931 -6.1125428e-05   0.72514062 0.0035595622            0   0.72158106    1.6549549    2.3800955   -3.8791483 
 4715000    1.1390569 1.6845831e-05   0.73171131 0.0098138353            0   0.72189747    1.6658708    2.3975821    4.1225951 
 4720000    1.0920515 3.4679548e-05   0.77516217  0.007758897            0   0.76740328    1.5971253    2.3722875    5.9234732 
 4725000    1.1596919 7.7511356e-05   0.63126848 0.0021654479            0   0.62910303    1.6960495     2.327318    10.264481 
 4730000    1.2260382 -0.00010000343   0.57618702 0.0046892211            0    0.5714978    1.7930809     2.369268   -7.8710837 
 4735000    1.1399895 -6.8420925e-05   0.67236346  0.057909135            0   0.61445433    1.6672347    2.3395981   -4.6667046 
 4740000    1.1204777 2.2359926e-05   0.68660357  0.052275064            0    0.6343285    1.6386986    2.3253022    4.6149586 
 4745000    1.2407044 3.1254653e-05   0.56888166  0.028413605            0   0.54046806    1.8145302    2.3834118    5.5838883 
 4750000    1.1820121 5.3433472e-05   0.65958587  0.090250707            0   0.56933516    1.7286927    2.3882786    7.8598661 
 4755000    1.2941777 -8.5899077e-05   0.51360813 0.0054910511            0   0.50811708    1.8927349    2.4063431   -6.3897224 
 4760000    1.2685259 2.2163543e-05   0.55849242 0.0057516924            0   0.55274073    1.8552192    2.4137116    4.6832584 
 4765000    1.1372181 7.939702e-05   0.74175588   0.04437346            0   0.69738242    1.6631815    2.4049374    10.535192 
 4770000    1.1653405 -0.00014413263   0.69732354  0.046774781            0   0.65054875    1.7043105     2.401634   -12.357547 
 4775000    1.2746305 -7.3520326e-05    0.5271279  0.049612801            0    0.4775151    1.8641471     2.391275   -5.1372064 
 4780000    1.2521969 -2.8252435e-07   0.59521846   0.11394123            0   0.48127723    1.8313379    2.4265564    2.3976259 
 4785000    1.1073422 -4.3147874e-05   0.80861881  0.046347623            0   0.76227119     1.619488    2.4281068   -1.9902355 
 4790000     1.197077 -2.8822884e-05   0.62421864  0.011088579            0   0.61313007    1.7507251    2.3749437  -0.57651962 
 4795000    1.1443561 -0.00012122986   0.67230882  0.036185763            0   0.63612305    1.6736207    2.3459295   -10.068008 
 4800000    1.1935599 -6.0440221e-05   0.57110343  0.052196121            0   0.51890731    1.7455813    2.3166848   -3.8723938 
 4805000    1.1960606 6.476916e-06   0.59800992 0.0066632681            0   0.59134665    1.7492386    2.3472485    3.0104847 
 4810000    1.2531886 -4.3610769e-05   0.51586578 0.0057067532            0   0.51015902    1.8327883    2.3486541   -2.1170886 
 4815000    1.2029894 -2.3615985e-06   0.58487433 0.0014929299            0    0.5833814     1.759372    2.3442463    2.1024187 
 4820000    1.2100538 7.742002e-06   0.54642719 0.00015660183            0   0.54627059    1.7697036    2.3161308    3.1089118 
 4825000    1.2390979 7.863174e-05   0.42720806            0            0   0.42720806    1.8121807    2.2393888    10.291279 
 4830000    1.1090096 0.00010096764   0.63397919  0.011644807            0   0.62233438    1.6219265    2.2559057    12.594992 
 4835000    1.0550051 -2.9966301e-05   0.72442183  0.030680169            0   0.69374166     1.542945    2.2673668  -0.80118235 
 4840000    1.3009764 3.3921653e-05   0.38335693 0.0058287849            0   0.37752815     1.902678    2.2860349    5.7596122 
 4845000    1.1462015 -3.8585392e-06   0.61228912            0            0   0.61228912    1.6763196    2.2886088    1.8934943 
 4850000    1.1360894 -2.857543e-06   0.61709948            0            0   0.61709948    1.6615307    2.2786302    1.9860178 
 4855000    1.1928889 -5.5963152e-05   0.55366173            0            0   0.55366173    1.7445999    2.2982617   -3.4323651 
 4860000    1.2333202 -4.9765762e-05   0.52116981 0.0047629659            0   0.51640685    1.8037308    2.3249007   -2.7711134 
 4865000     1.157697 3.8619684e-05   0.65183898  0.039675115            0   0.61216387    1.6931319    2.3449709    6.2996265 
 4870000    1.0842072 4.6885212e-05   0.75552699   0.17206678            0   0.58346021     1.585653      2.34118    7.1422257 
 4875000    1.1931279 -4.7576512e-06   0.61665442  0.012688237            0   0.60396618    1.7449496     2.361604    1.8744205 
 4880000    1.3116087 6.501498e-05   0.46751915  0.012958794            0   0.45456035    1.9182277    2.3857468    9.0432808 
 4885000    1.1588456 0.00011434505   0.66712594   0.02106841            0   0.64605753    1.6948117    2.3619376    14.070871 
 4890000    1.0934094 2.9716945e-05    0.7675507  0.071028752            0   0.69652195    1.5991113     2.366662    5.4096772 
 4895000    1.2147398 9.3776158e-06    0.6420094  0.014863544            0   0.62714585     1.776557    2.4185664    3.3788343 
 4900000    1.1995098 4.2349144e-05   0.64776212  0.039854591            0   0.60790752     1.754283    2.4020451    6.7385975 
 4905000    1.1539514 -3.3012938e-05   0.64927287  0.021122074            0    0.6281508    1.6876539    2.3369268   -1.0435981 
 4910000     1.069292 -0.00011258173   0.74188778   0.03120134            0   0.71068644    1.5638395    2.3057273   -9.2226415 
 4915000    1.1673581 -6.8779697e-05   0.60319326  0.021857159            0   0.58133611    1.7072612    2.3104545   -4.7325865 
 4920000    1.0296853 6.7506668e-05   0.82323591  0.042942331            0   0.78029358    1.5059148    2.3291507    9.2418334 
 4925000     1.168721 4.0468017e-05   0.60849904  0.027743455            0   0.58075559    1.7092545    2.3177536    6.4616785 
 4930000    1.0494907 -9.5922963e-05   0.72708159  0.013069024            0   0.71401256    1.5348802    2.2619618   -7.5605496 
 4935000    1.1446627 -5.1077583e-05   0.62665243 0.0097459844            0   0.61690645    1.6740692    2.3007216   -2.9296229 
 4940000      1.20577 5.7025253e-05   0.55466313 0.0073061741            0   0.54735696    1.7634386    2.3181017    8.1574876 
 4945000    1.2904699 3.7340615e-05   0.40705444  0.008319705            0   0.39873473    1.8873123    2.2943667    6.1180457 
 4950000    1.1908155 -3.2931668e-05   0.54319884  0.026545339            0    0.5166535    1.7415677    2.2847665   -1.0874362 
 4955000   0.96425365 3.9752076e-05   0.81752329  0.067867284            0   0.74965601     1.410221    2.2277443    6.2983569 
 4960000   0.99590957 5.5498608e-05   0.72766078  0.053162386            0    0.6744984    1.4565178    2.1841785     7.867236 
 4965000    1.0997637 -9.7665779e-05   0.59663946  0.040371162            0   0.55626829    1.6084044    2.2050438   -7.7959319 
 4970000    1.0703425 4.0463696e-07   0.63617798  0.032327381            0    0.6038506     1.565376    2.2015539    2.2429888 
 4975000     1.067535 8.6141415e-06   0.63883786  0.023793807            0   0.61504405    1.5612699    2.2001078    3.0821959 
 4980000    1.0047542 4.7761925e-05   0.71835998  0.019142812            0   0.69921716    1.4694531    2.1878131    7.0786342 
 4985000    1.0950194 8.7408312e-05   0.61586822 0.0057814193            0    0.6100868    1.6014659    2.2173341    11.167945 
 4990000    1.1384375 -0.00013879475   0.56536643            0            0   0.56536643    1.6649648    2.2303313   -11.982251 
 4995000    1.0633866 -5.2168074e-05   0.63366239            0            0   0.63366239     1.555203    2.1888653   -3.1531454 
 5000000    1.0364612 -4.2566894e-06   0.66874164 0.0054465868            0   0.66329505    1.5158244    2.1845661    1.7486811 
 5005000    1.0622082 -3.4242077e-05   0.64408541  0.065759771            0   0.57832564    1.5534794    2.1975648   -1.3088239 
 5010000    1.1189896 -9.7266094e-07   0.57581736  0.026049833            0   0.54976753    1.6365223    2.2123396    2.1127392 
 5015000    1.0411652 -3.0060564e-05   0.67606347  0.002733692            0   0.67332977    1.5227041    2.1987676  -0.87943421 
 5020000    1.1187441 6.1408698e-06    0.5841374 0.0061271743            0   0.57801023    1.6361633    2.2203007    2.8491258 
 5025000    1.1147721 -6.9364324e-05   0.58645847  0.002787046            0   0.58367143    1.6303542    2.2168127   -4.8860941 
 5030000    1.0116839 -3.1724073e-05   0.71099473 0.0080176693            0   0.70297706    1.4795878    2.1905825   -1.0579626 
 5035000    1.1325862 8.8992946e-05   0.53912992  0.019832569            0   0.51929735    1.6564073    2.1955372    11.308415 
 5040000    1.1587089 9.2854159e-06    0.4958843  0.042774758            0   0.45310954    1.6946117     2.190496    3.1413226 
 5045000   0.98141017 -4.6775973e-05   0.75102326    0.1510214            0   0.60000185    1.4353124    2.1863356    -2.603524 
 5050000    1.0026888 0.00014754842   0.73446408   0.05785805            0   0.67660603    1.4664324    2.2008965    17.309855 
 5055000    1.1335625 0.00014249411   0.56479069  0.020625994            0    0.5441647    1.6578352    2.2226259    16.814022 
 5060000    1.0994205 -6.9197724e-05   0.66714018  0.026041829            0   0.64109835    1.6079024    2.2750426   -4.8108043 
 5065000    1.1374621 -9.1815552e-05   0.59573001   0.02132392            0   0.57440609    1.6635384    2.2592684   -7.1426441 
 5070000    1.1444414 -8.6290879e-07   0.59988223  0.020471919            0   0.57941031    1.6737456    2.2736278     2.185266 
 5075000    1.1372277 -1.8511536e-05   0.58008725  0.028714736            0   0.55137252    1.6631956    2.2432828   0.34770152 
 5080000    1.1047865 -9.9709544e-05   0.63775045  0.016582851            0    0.6211676    1.6157502    2.2535007   -7.9567566 
 5085000    1.1098658 -0.00010513262   0.60513651  0.055059017            0    0.5500775    1.6231787    2.2283152   -8.5372646 
 5090000    1.1255043 9.2067883e-06     0.580191  0.097121485            0   0.48306951    1.6460501    2.2262411    3.1690162 
 5095000    1.0399939 7.1143011e-05   0.74299852  0.084503559            0   0.65849496    1.5209911    2.2639896    9.5490339 
 5100000   0.91527078 6.1758854e-05   0.91848819   0.16250062            0   0.75598758    1.3385835    2.2570717    8.5811784 
 5105000    1.1021695 2.2502423e-05   0.66369859   0.06386731            0   0.59983128    1.6119229    2.2756215    4.5798696 
 5110000    1.1464332 -5.5666532e-05   0.58939224 0.0089572951            0   0.58043494    1.6766585    2.2660508   -3.4342021 
 5115000    1.1768034 1.9215791e-05    0.4976805 0.0066491226            0   0.49103138    1.7210749    2.2187554    4.1864524 
 5120000    1.1892396 6.7111467e-06   0.47720606 0.0099470419            0   0.46725902    1.7392629     2.216469    2.9036904 
 5125000    1.1487729 -4.9688443e-05   0.53076842  0.024497189            0   0.50627123    1.6800804    2.2108488   -2.8772477 
 5130000    1.1994558 -1.7431241e-06   0.47523829  0.019590738            0   0.45564755    1.7542041    2.2294424    2.0509465 
 5135000    1.1274771 -1.0139117e-05   0.61888339  0.010429447            0   0.60845394    1.6489352    2.2678186    1.2295731 
 5140000    1.2274146 -2.7595545e-05   0.48072434  0.030926664            0   0.44979768    1.7950938    2.2758181  -0.54996567 
 5145000    1.0402787 4.1935848e-05   0.77300051   0.18179082            0   0.59120969    1.5214076    2.2944081    6.5886389 
 5150000    1.0908929 -2.13534e-05   0.66429888  0.056942771            0   0.60735611    1.5954309    2.2597298  0.073141626 
 5155000    1.0929986 -9.7637889e-05   0.61751112  0.099562022            0    0.5179491    1.5985104    2.2160216   -7.7820983 
 5160000    1.0671788 -1.7308839e-05   0.63653554  0.029549616            0   0.60698592    1.5607489    2.1972845   0.42485937 
 5165000    1.0657782 7.4410884e-05   0.65998062  0.089377349            0   0.57060327    1.5587006    2.2186812    9.8383557 
 5170000    1.2329894 5.4473808e-05   0.38049143  0.071623925            0   0.30886751     1.803247    2.1837384    7.7618564 
 5175000    1.0069628 -1.8513383e-05   0.70013401  0.024186715            0   0.67594729    1.4726831    2.1728171   0.27704666 
 5180000    1.0058562 -2.6984521e-05   0.70208224 0.0082024302            0   0.69387981    1.4710646    2.1731469  -0.59006808 
 5185000    1.0660953 7.6666214e-06   0.59029144  0.022614396            0   0.56767705    1.5591644    2.1494559    2.9345179 
 5190000    1.1041486 4.0372932e-05   0.52779233  0.008410017            0   0.51938231    1.6148173    2.1426096    6.2767979 
 5195000    1.0931499 2.9467142e-05   0.53576674  0.020425796            0   0.51534095    1.5987317    2.1344985    5.1519338 
 5200000    1.0461478 -1.0449969e-05   0.64462655  0.031385698            0   0.61324085    1.5299911    2.1746176    1.1045408 
 5205000    1.1306064 1.7105343e-05   0.53565249 0.0034891423            0   0.53216335    1.6535118    2.1891643    3.9407515 
 5210000   0.96464904 3.0324044e-05   0.75021986 0.00062438239            0   0.74959548    1.4107992    2.1610191    5.2662012 
 5215000    1.0763737 1.5267109e-05   0.62922748 0.0067981626            0   0.62242932    1.5741966    2.2034241     3.766776 
 5220000    1.0973034 2.8745452e-05   0.60371704  0.023438962            0   0.58027808    1.6048062    2.2085232    5.1520576 
 5225000   0.95853495 5.9187969e-05   0.79807653  0.039139385            0   0.75893715    1.4018574    2.1999339    8.2607819 
 5230000    1.0510794 4.4819131e-05   0.63734457 0.0078157519            0   0.62952882    1.5372037    2.1745482    6.7640272 
 5235000   0.94088961 -3.2497651e-05   0.81118138  0.016195092            0   0.79498629    1.3760511    2.1872324    -1.140527 
 5240000    1.1657167 -1.8134294e-05   0.51088876 0.0068235775            0   0.50406518    1.7048607    2.2157494   0.35879765 
 5245000    1.1265649 5.8895873e-05   0.53704951 9.0039687e-06            0   0.53704051    1.6476011    2.1846506     8.215588 
 5250000    1.1201715 8.3850458e-06   0.54829642 0.0048909375            0   0.54340549    1.6382509    2.1865473     3.045176 
 5255000    1.0344792 2.2459731e-05   0.68273747  0.013698525            0   0.66903894    1.5129258    2.1956633    4.4955397 
 5260000    1.0622594 -4.9342703e-06   0.66429248 0.0043800458            0   0.65991243    1.5535544    2.2178469    1.7125776 
 5265000    1.0543909 7.9369637e-06   0.67866502            0            0   0.67866502    1.5420467    2.2207117    3.0334568 
 5270000     1.200466 -4.0742877e-06   0.48166925 8.8975559e-05            0   0.48158027    1.7556815    2.2373507    1.8201436 
 5275000    1.0951033 4.7822847e-05   0.62606701 0.0017363658            0   0.62433064    1.6015886    2.2276556    7.1247152 
 5280000    1.1706961 8.3018672e-05   0.52713485 0.0074524656            0   0.51968238     1.712143    2.2392779     10.74039 
 5285000   0.95738852 1.9038615e-05   0.82094751  0.033175173            0   0.78777234    1.4001807    2.2211282    4.1706824 
 5290000   0.94538295 1.856985e-05    0.8605559  0.055038268            0   0.80551763    1.3826226    2.2431785    4.1447311 
 5295000    1.2448694 3.4291519e-06    0.4281729 0.0074055212            0   0.42076738    1.8206215    2.2487944    2.5999396 
 5300000    1.1414079 -4.8137313e-05   0.63874498 0.0030058464            0   0.63573913    1.6693091    2.3080541   -2.6212068 
 5305000    1.1318852 -2.3889071e-05   0.63186891  0.007231844            0   0.62463706    1.6553821     2.287251  -0.15898984 
 5310000    1.0415004 2.0059887e-06   0.76365723  0.076761614            0   0.68689562    1.5231943    2.2868515    2.4922648 
 5315000    1.0497371 5.3283742e-05   0.73560986  0.026482098            0   0.70912776    1.5352405    2.2708503    7.7271055 
 5320000    1.1511039 4.9668151e-05   0.62494979 0.00025512232            0   0.62469466    1.6834895    2.3084393     7.394458 
 5325000    1.1159242 -4.2998437e-05   0.68091815            0            0   0.68091815    1.6320392    2.3129573   -2.0900827 
 5330000     1.016306 -8.6509018e-05    0.7639884  0.015791869            0   0.74819653    1.4863475    2.2503359   -6.6081875 
 5335000    1.0945195 -8.8506251e-05   0.71121405  0.041894051            0      0.66932    1.6007348    2.3119488   -6.7510913 
 5340000    1.1475353 -0.00010179234   0.62230996  0.010358672            0   0.61195129    1.6782704    2.3005804   -8.1229554 
 5345000    1.0641144 -0.00010188924   0.71008203  0.034262587            0   0.67581944    1.5562673    2.2663494   -8.1671083 
 5350000    1.1227792 -8.3079553e-05   0.63441995  0.036206626            0   0.59821332    1.6420645    2.2764845   -6.2308617 
 5355000     1.130864 -4.3654934e-05   0.63317181  0.038733347            0   0.59443846    1.6538887    2.2870605   -2.1832048 
 5360000    1.1711223 3.3581416e-05   0.62099104  0.037713495            0   0.58327754    1.7127663    2.3337574    5.7724944 
 5365000    1.1492537 2.5830799e-05   0.63809916  0.038522463            0    0.5995767    1.6807835    2.3188827    4.9639564 
 5370000    1.1327184 -2.9775274e-05   0.66709411   0.01450958            0   0.65258453    1.6566007    2.3236948  -0.72529322 
 5375000    1.1028808 2.9588261e-06   0.69090808  0.011491459            0   0.67941662    1.6129632    2.3038713    2.6068551 
 5380000    1.1060119 -4.09475e-05    0.6582363 0.0011901714            0   0.65704613    1.6175425    2.2757788   -1.9172452 
 5385000    1.1199425 4.6799398e-05   0.62060747 0.00039234729            0   0.62021513    1.6379159    2.2585234    7.0507817 
 5390000    1.2473486 5.7022353e-05   0.43062751 0.0014147332            0   0.42921278    1.8242474    2.2548749    8.0939638 
 5395000   0.95712286 -4.5713974e-05   0.88372398 0.00098113438            0   0.88274285    1.3997922    2.2835162   -2.3975948 
 5400000    1.2877248 6.4488712e-05   0.41791574 2.3829499e-05            0   0.41789191    1.8832975    2.3012132    8.9048573 
 5405000    1.0758684 7.8271409e-05   0.69837161 0.0060083856            0   0.69236323    1.5734575    2.2718291    10.286821 
 5410000    1.0325863 -0.00012352037   0.78492276  0.049118945            0   0.73580381    1.5101575    2.2950802   -10.353405 
 5415000    1.0031947 -7.6934999e-05   0.76566572  0.026860763            0   0.73880496    1.4671722    2.2328379    -5.645306 
 5420000    1.0507229 -0.00010210881   0.73835713  0.011928751            0   0.72642838    1.5366823    2.2750394   -8.1809031 
 5425000    1.1659152 -5.4471555e-05   0.52180614 0.0087300533            0   0.51307609     1.705151    2.2269571   -3.3509301 
 5430000    1.0660715 5.5378476e-05   0.60299505 0.0022489684            0   0.60074608    1.5591295    2.1621246    7.8328805 
 5435000   0.97974751 1.7472187e-06   0.66902439 0.00088223455            0   0.66814216    1.4328807    2.1019051    2.2808203 
 5440000   0.90781416 7.3956744e-05   0.75028385  0.006533031            0   0.74375082    1.3276782    2.0779621    9.6511327 
 5445000   0.97043187 1.4452727e-06   0.68315308 0.0096916109            0   0.67346147    1.4192566    2.1024097    2.2504056 
 5450000    0.9776146 -2.7986409e-05   0.64458079 0.0056404049            0   0.63894038    1.4297613    2.0743421  -0.79146614 
 5455000   0.97601855 1.4893134e-05   0.67241391 0.0034045628            0   0.66900934    1.4274271     2.099841    3.6248979 
 5460000    1.0035736 4.2739459e-06    0.6275056 0.0063994182            0   0.62110618    1.4677264     2.095232     2.532884 
 5465000    1.0636576 -3.1699591e-07   0.51467225  0.014851996            0   0.49982026    1.5555992    2.0702715    2.0378111 
 5470000    1.0708951 8.1277974e-05   0.53526008  0.011017192            0   0.52424289    1.5661841    2.1014441    10.424309 
 5475000     1.045922 7.1730794e-05    0.5666583 0.00048848464            0   0.56616981    1.5296609    2.0963192    9.4415525 
 5480000   0.92989414 -5.3756854e-05   0.74356072 0.0022494038            0   0.74131132    1.3599702    2.1035309    -3.401171 
 5485000    0.8340745 -0.00011250796   0.87864654  0.010832131            0    0.8678144     1.219834    2.0984805   -9.4223351 
 5490000   0.91421557 -3.4041117e-05   0.74387287  0.052614833            0   0.69125803    1.3370403    2.0809131   -1.4048973 
 5495000    0.9976784 3.6146755e-05   0.62597055  0.053646568            0   0.57232398    1.4591047    2.0850752     5.786503 
 5500000    1.1387548 3.5449584e-05   0.43499075  0.020648114            0   0.41434264    1.6654289    2.1004196     5.730457 
 5505000    1.0690256 2.8228916e-05   0.52681477  0.019405938            0   0.50740883      1.56345    2.0902648    4.9809057 
 5510000   0.90546496 5.2436065e-05   0.74945657  0.036009897            0   0.71344667    1.3242425    2.0736991    7.4431521 
 5515000   0.92903882 5.8202216e-05   0.75076687  0.039262607            0   0.71150426    1.3587193    2.1094861     8.069393 
 5520000   0.90498935 7.8125028e-05   0.77408134  0.046830356            0   0.72725098    1.3235469    2.0976283    10.097631 
 5525000    1.0574352 9.1744207e-05   0.58681177  0.017626821            0   0.56918495    1.5464989    2.1333107    11.527918 
 5530000   0.96661907 0.00010169262   0.69377355 0.0082277173            0   0.68554583    1.4136804    2.1074539    12.520778 
 5535000    1.0362849 0.00014529874   0.61741036  0.010879953            0   0.60653041    1.5155667     2.132977    17.011568 
 5540000    1.0083906 6.5202897e-05   0.66681548  0.011618441            0   0.65519704    1.4747713    2.1415868    8.8183634 
 5545000   0.87763688 -6.5258538e-05   0.82440197 0.0037970259            0   0.82060495    1.2835439    2.1079459   -4.5745283 
 5550000   0.99429949 -4.1690826e-06   0.65505771 0.0014815459            0   0.65357617     1.454163    2.1092207    1.6823067 
 5555000    1.0298548 2.9508071e-05   0.62976791  0.029236535            0   0.60053137    1.5061627    2.1359306    5.1575571 
 5560000   0.96174581 -4.5856115e-05   0.73031405   0.03046952            0   0.69984453    1.4065533    2.1368673   -2.5587989 
 5565000    0.9876201 -6.9604233e-05   0.68343803 0.0071884703            0   0.67624956    1.4443944    2.1278324    -4.999641 
 5570000     0.902104 1.0191009e-05   0.80521961 0.00074452101            0   0.80447509    1.3193271    2.1245467     3.168106 
 5575000    1.0861801 8.8453556e-06   0.58063799 0.0055090423            0   0.57512895    1.5885385    2.1691765    3.0749409 
 5580000   0.93106819 -1.8929364e-05   0.78389684  0.032852463            0   0.75104438    1.3616872    2.1455841   0.20721723 
 5585000   0.99530796 4.3533476e-05   0.66689676  0.035889447            0   0.63100732    1.4556379    2.1225347    6.5803626 
 5590000   0.89913702 3.4355714e-05   0.80293212  0.034539329            0   0.76839279    1.3149879      2.11792    5.6359452 
 5595000   0.88573374 -4.9855392e-05   0.75707654  0.027536058            0   0.72954048    1.2953856    2.0524621     -3.05273 
 5600000   0.99402544 1.2376397e-05   0.62116237 0.0075897402            0   0.61357263    1.4537622    2.0749246    3.3422677 
 5605000   0.95630685 -1.9940223e-05    0.6904265  0.020924808            0    0.6695017    1.3985988    2.0890253  0.047146461 
 5610000    1.0696439 -0.00010151628   0.51658375  0.016567877            0   0.50001587    1.5643541    2.0809379   -8.3143293 
 5615000    1.0591818 8.527023e-05   0.53538095 0.00018981771            0   0.53519113    1.5490534    2.0844344    10.816106 
 5620000    1.0380161 -2.0776797e-06   0.57928155 0.00018557957            0   0.57909597    1.5180985      2.09738    1.8846256 
 5625000    1.0895073 -3.8828608e-05   0.51355796 0.0023040607            0    0.5112539    1.5934044    2.1069624   -1.8690871 
 5630000   0.94259765 5.8447627e-05   0.69154129 0.0023748487            0   0.68916644    1.3785491    2.0700904    8.0551274 
 5635000    1.1518052 1.1935304e-05    0.3961925 0.0031429541            0   0.39304954     1.684515    2.0807075    3.3028827 
 5640000   0.96154819 7.8837187e-05   0.69348006 0.0016690453            0   0.69181102    1.4062642    2.0997443    10.172672 
 5645000   0.98621104 -3.1408358e-05   0.61388769 0.0052570082            0   0.60863069    1.4423336    2.0562213   -1.1599945 
 5650000   0.97896606 -7.7859352e-05   0.61470188 0.0015333672            0   0.61316851    1.4317379    2.0464397   -5.9263579 
 5655000    1.0186562   6.4429e-05   0.52539292 0.00025601509            0    0.5251369    1.4897847    2.0151776    8.6127072 
 5660000   0.94741578 -1.5844469e-05   0.63241475 2.5859473e-06            0   0.63241216    1.3855956    2.0180103   0.39553669 
 5665000    1.0072918 8.9833904e-06   0.57531428  0.012724641            0   0.56258964    1.4731643    2.0484786    2.9683778 
 5670000    1.0621992 6.5759429e-05   0.53036736  0.050055644            0   0.48031172    1.5534663    2.0838337    8.8175992 
 5675000   0.96128892 5.4963339e-05   0.67958657  0.017359047            0   0.66222752     1.405885    2.0854716    7.7137175 
 5680000   0.96663113 3.7052919e-05   0.67029697 0.0045666683            0    0.6657303     1.413698     2.083995    5.8782139 
 5685000   0.98686357 -5.1547514e-05   0.65416331  0.002366295            0   0.65179701     1.443288    2.0974513   -3.1810142 
 5690000     1.090826 2.6442455e-05   0.46752476 0.00063571661            0   0.46688904     1.595333    2.0628578    4.7705652 
 5695000   0.93887783 5.4568023e-05    0.6744255            0            0    0.6744255    1.3731088    2.0475343    7.6352999 
 5700000   0.95068773 -9.2207963e-05      0.69653 9.7052716e-05            0   0.69643295    1.3903808    2.0869108   -7.3551847 
 5705000   0.93842119 -0.00010352653   0.74558228 0.0049825068            0   0.74059977     1.372441    2.1180233    -8.483093 
 5710000    1.0370701 1.5614592e-05    0.6130639  0.014644873            0   0.59841903     1.516715    2.1297789    3.7287131 
 5715000    1.0585547 -6.9783578e-06    0.5910893 0.0058746765            0   0.58521462    1.5481362    2.1392255    1.4246417 
 5720000    1.0885242 8.9651618e-05   0.50093897  0.043154256            0   0.45778471    1.5919666    2.0929056    11.273231 
 5725000    1.0758001 -2.1673845e-05   0.50622566  0.023234993            0   0.48299067    1.5733576    2.0795833  -0.13981842 
 5730000    1.0033267 -2.7451004e-05   0.64270763 0.0051808106            0   0.63752682    1.4673654     2.110073  -0.70090984 
 5735000    1.0913728 7.282506e-05   0.52326693 0.0046480586            0   0.51861887    1.5961327    2.1193997    9.5766858 
 5740000    1.0203726 5.1734317e-05   0.63581151 0.0025899475            0   0.63322156    1.4922949    2.1281064    7.4257005 
 5745000   0.93234629 7.4895908e-05   0.75394603 0.00059788255            0   0.75334815    1.3635565    2.1175025    9.7868435 
 5750000   0.95134165 -2.3458696e-05   0.71785899 2.511068e-05            0   0.71783388    1.3913372    2.1091962  -0.29297431 
 5755000   0.98852828 -1.0636643e-05   0.65587997 0.0027157193            0   0.65316425    1.4457226    2.1016026    1.0124104 
 5760000   0.82413311 -2.5205162e-06    0.8875763 0.0088052945            0     0.878771    1.2052947     2.092871    1.8347701 
 5765000   0.94384241 -2.9410122e-05   0.67396118  0.007325249            0   0.66663593    1.3803695    2.0543307  -0.95726583 
 5770000     1.053181 -1.9598445e-05    0.4724405  0.031764847            0   0.44067565    1.5402772    2.0127177 0.0058369614 
 5775000    0.9173622 3.6782606e-05   0.66839995  0.089817797            0   0.57858215    1.3416422    2.0100422     5.776581 
 5780000   0.97384446 -7.5265829e-06   0.58868662  0.021780802            0   0.56690582    1.4242475    2.0129341     1.242212 
 5785000    1.0348919 1.8935749e-05   0.54558595  0.005350345            0   0.54023561    1.5135294    2.0591153     3.998136 
 5790000   0.85667705 5.7746482e-05   0.81365124 0.0083084557            0   0.80534278    1.2528902    2.0665414    7.9797811 
 5795000   0.97249414 -7.9828897e-05   0.62551282 0.0064019747            0   0.61911085    1.4222727    2.0477855   -6.1266936 
 5800000   0.97965277 -7.675692e-06   0.57584732  0.027011518            0    0.5488358    1.4327422    2.0085895    1.2225986 
 5805000    1.0308141 -0.00010939469   0.51649289  0.038421319            0   0.47807157    1.5075656    2.0240585   -9.1779575 
 5810000   0.90078725 -2.7080045e-05   0.64350293  0.042234666            0   0.60126827    1.3174013    1.9609043  -0.81209235 
 5815000   0.95693396 -2.7224736e-07   0.55829967  0.023153329            0   0.53514635    1.3995159    1.9578156    1.9299375 
 5820000    1.0689739 -2.9706178e-05   0.41236801  0.004952393            0   0.40741562    1.5633744    1.9757424   -1.0661702 
 5825000   0.83558851 5.8041765e-06    0.7699044  0.011154857            0   0.75874954    1.2220482    1.9919526    2.5863003 
 5830000    1.1070016 -3.5637296e-05   0.36080581 0.0076646831            0   0.35314113    1.6189898    1.9797956   -1.6694635 
 5835000   0.94869698 2.4855098e-05   0.59109222 0.0016232234            0   0.58946899    1.3874693    1.9785616    4.5237236 
 5840000   0.91414704 5.7941921e-05   0.72232346            0            0   0.72232346    1.3369401    2.0592635    7.9925162 
 5845000    1.0241527 -6.6392182e-05   0.54053797            0            0   0.54053797    1.4978234    2.0383613   -4.7601981 
 5850000   0.92644569 -7.1533358e-05   0.61805765 0.0060010551            0    0.6120566    1.3549268    1.9729845   -5.3520314 
 5855000    0.8737558 0.00013192192   0.66059805  0.015537928            0   0.64506012    1.2778679    1.9384659    15.447271 
 5860000   0.88875766 3.4058843e-05   0.62420911 0.0048518112            0   0.61935729    1.2998081    1.9240172    5.4116427 
 5865000   0.85981471 -5.6207432e-05   0.67207927 0.0018972865            0   0.67018198     1.257479    1.9295583   -3.8260828 
 5870000     1.023108 4.0722795e-05   0.47021637 0.0067512505            0   0.46346512    1.4962954    1.9665118     6.136526 
 5875000    0.8839283 2.7233801e-05   0.67672592   0.01901673            0   0.65770919    1.2927451    1.9694711    4.7582122 
 5880000   0.83172524 1.0746894e-05   0.73806069  0.026982047            0   0.71107864    1.2163982    1.9544589    3.0549407 
 5885000   0.89222825 0.00014178184   0.67053134 0.0077354506            0   0.66279589    1.3048838    1.9754152    16.493875 
 5890000   0.90637031 0.00011382306   0.65901002 0.0070093542            0   0.65200066    1.3255666    1.9845766    13.640058 
 5895000   0.88046609 -7.895269e-06   0.70596457 0.0095473424            0   0.69641723    1.2876817    1.9936462    1.1851707 
 5900000   0.90982884 -6.3025371e-05   0.66302019  0.011072623            0   0.65194757    1.3306247    1.9936449   -4.4601531 
 5905000   0.93159529 1.1832807e-05   0.67019171 0.0067598191            0   0.66343189    1.3624581    2.0326498    3.2443293 
 5910000    1.0000793 0.00011173718   0.56131655 0.0011251067            0   0.56019144     1.462616    2.0239326    13.465819 
 5915000   0.86876055 9.8176206e-05   0.78674742 0.0017307209            0    0.7850167    1.2705623    2.0573097    12.110553 
 5920000   0.95995626 7.6087481e-05   0.62767923  0.014604735            0    0.6130745     1.403936    2.0316153    9.8229733 
 5925000    1.0758219 1.4131155e-05   0.45597873  0.018472083            0   0.43750665    1.5733895    2.0293683    3.4763986 
 5930000    0.9058792 -9.8933972e-05   0.69030862  0.012942318            0   0.67736631    1.3248483     2.015157   -8.1156818 
 5935000   0.99105937 -8.2082471e-05    0.6125439  0.021834777            0   0.59070912    1.4494243    2.0619682   -6.3432768 
 5940000    0.8965703 9.1285062e-06   0.73841042  0.055063814            0   0.68334661    1.3112341    2.0496445    2.9844035 
 5945000   0.95496803 6.1465421e-05   0.69720394  0.080392837            0    0.6168111    1.3966407    2.0938447    8.3879038 
 5950000   0.99071758 2.0306458e-05   0.63219468  0.059789602            0   0.57240508    1.4489245    2.0811191    4.1605004 
 5955000    1.1011323 -4.1808437e-06   0.48368898  0.024005442            0   0.45968354     1.610406    2.0940949    1.6659765 
 5960000   0.92161088 2.3840066e-05   0.73463692  0.016132659            0   0.71850426    1.3478559    2.0824928    4.5237156 
 5965000    1.0042037 -1.9255573e-05     0.592554 0.0085998892            0   0.58395411    1.4686479    2.0612019  0.089431194 
 5970000    1.0418009 2.0640458e-05   0.55569954 0.0031387995            0   0.55256075    1.5236338    2.0793333    4.1929162 
 5975000   0.97757097 -2.0626483e-05   0.68940131 0.0099245736            0   0.67947674    1.4296975    2.1190989 0.0069469943 
 5980000    1.0901312 -4.2159088e-05   0.54070716   0.03890837            0   0.50179879     1.594317    2.1350241   -2.1820665 
 5985000    1.0562502 -1.908515e-05   0.58035735  0.033863581            0   0.54649377     1.544766    2.1251233     0.170804 
 5990000   0.99496358 1.0838198e-05   0.64711009  0.038452284            0   0.60865781    1.4551342    2.1022443    3.2120759 
 5995000     1.040342 0.00014511525   0.64465958  0.030612269            0   0.61404731    1.5215002    2.1661598    17.025962 
 6000000    1.0967117 4.4058127e-05   0.58266304 0.0053837519            0   0.57727929    1.6039409     2.186604    6.6981562 
 6005000    1.1822872 4.1586864e-05   0.45696863            0            0   0.45696863     1.729095    2.1860636    6.4445585 
 6010000    1.0783557 7.9181588e-05   0.61767958 0.0021353704            0   0.61554421    1.5770952    2.1947748    10.302969 
 6015000   0.96319385 -3.8082425e-05   0.80748808  0.014306767            0   0.79318131     1.408671    2.2161591   -1.6834812 
 6020000    1.0269718 -6.6186242e-06   0.72688558  0.017411839            0   0.70947374    1.5019463    2.2288319    1.5510848 
 6025000    1.1049972 1.2302952e-05   0.59596083   0.00637708            0   0.58958375    1.6160584    2.2120193    3.4718416 
 6030000    1.1796372 -6.2241833e-05   0.48455356  0.012495923            0   0.47205763    1.7252193    2.2097729   -4.1637908 
 6035000     1.088814 -2.7589636e-05   0.61734164 0.0073688558            0   0.60997278    1.5923904    2.2097321  -0.61544662 
 6040000    1.1595621 -4.5025074e-05   0.50413508 0.00019954439            0   0.50393554    1.6958595    2.1999946   -2.4105729 
 6045000    1.0759253 -5.3303147e-05   0.64055712            0            0   0.64055712    1.5735407    2.2140978   -3.2441444 
 6050000    1.0026473 4.3412623e-05   0.69909448 0.0017519889            0    0.6973425    1.4663717    2.1654661    6.6109188 
 6055000   0.98043572 5.4669503e-06   0.70803779  0.019617671            0   0.68842012    1.4338872     2.141925    2.7017407 
 6060000   0.96809572 0.00010550671   0.72394243  0.045312316            0   0.67863012      1.41584    2.1397824    12.943669 
 6065000    1.0510635 0.00013544224   0.56340665  0.019857411            0   0.54354924    1.5371804     2.100587    15.969872 
 6070000    1.2191126 4.3458608e-05   0.32338315 0.0023292048            0   0.32105394    1.7829521    2.1063353    6.5564967 
 6075000     1.120246 -4.8522811e-05   0.48084744 0.0012656163            0   0.47958183    1.6383598    2.1192072   -2.8495286 
 6080000   0.94679187 -8.0385804e-05   0.72807956 0.0070858998            0   0.72099366    1.3846831    2.1127627   -6.1187437 
 6085000    1.0022132 -2.2118337e-05   0.64215519  0.011105863            0   0.63104932    1.4657368     2.107892  -0.15702574 
 6090000    1.0057641 6.8920931e-05   0.61886699 0.0033121599            0   0.61555483      1.47093    2.0897969    9.1473003 
 6095000    1.0959996 6.6596852e-05   0.52093249 1.7547818e-05            0   0.52091495    1.6028994    2.1238319    8.9433495 
 6100000    1.0683537 1.7853192e-05   0.53018167 0.00019226517            0   0.52998941    1.5624673     2.092649    3.9208159 
 6105000    1.1520483 -2.0803287e-05    0.4269694  0.038819283            0   0.38815012    1.6848706      2.11184 -0.018416612 
 6110000   0.98997913 -3.826915e-05   0.68316887  0.028792203            0   0.65437666    1.4478445    2.1310134   -1.7877476 
 6115000    1.1018433 -3.0810302e-05    0.5257986 0.0043923312            0   0.52140627    1.6114459    2.1372445   -1.0177304 
 6120000    1.0911884 -5.3291151e-05   0.57294933 0.0068652426            0   0.56608409    1.5958631    2.1688124   -3.2882014 
 6125000    1.0979997 -1.8776995e-05    0.5492236  0.010470345            0   0.53875326    1.6058245    2.1550481   0.23228385 
 6130000      1.09937 3.3056236e-05   0.49988451  0.025358314            0    0.4745262    1.6078286    2.1077131    5.4926717 
 6135000    1.0254093 8.1883959e-05   0.61324017   0.12719154            0   0.48604863    1.4996611    2.1129013    10.497819 
 6140000   0.90678173 1.6916569e-05   0.77298448  0.036656698            0   0.73632778    1.3261683    2.0991528    3.8314095 
 6145000    1.0594476 -2.3544747e-05   0.53374406  0.015869584            0   0.51787447    1.5494421    2.0831861  -0.32779591 
 6150000   0.95640326 -2.3913485e-05   0.67453128 0.0049569735            0   0.66957431    1.3987398     2.073271  -0.37546983 
 6155000    1.0393042 -4.4293694e-05   0.61117345  0.010792261            0   0.60038119    1.5199824    2.1311559   -2.4045184 
 6160000    1.1058049 -2.1965236e-06   0.49023958  0.045219777            0    0.4450198    1.6172396    2.1074792    1.8825552 
 6165000    1.0306282 4.7119709e-05   0.58643752  0.010745573            0   0.57569195    1.5072938    2.0937313    6.9187895 
 6170000   0.99370171 -1.4054105e-05   0.65711554  0.065749003            0   0.59136654    1.4532887    2.1104043   0.67126392 
 6175000   0.96175582 -4.7615732e-05   0.70502665  0.051505697            0   0.65352095    1.4065679    2.1115945   -2.7642564 
 6180000    1.0624835 1.3238925e-05   0.56750799 0.0021026774            0   0.56540531    1.5538821    2.1213901    3.4770561 
 6185000    1.1029356 1.9380984e-05   0.57383532 0.0048897275            0   0.56894559    1.6130433    2.1868786    4.1714914 
 6190000    1.0871226 -2.4241881e-05   0.57531212 0.0050807397            0   0.57023138    1.5899168     2.165229  -0.31713969 
 6195000    1.0881525 -5.2237298e-05   0.52164323  0.014286033            0   0.50735719    1.5914231    2.1130663    -3.236033 
 6200000    1.0447112 -7.0437483e-06   0.54840292  0.014314878            0   0.53408804    1.5278902    2.0762931    1.3550132 
 6205000   0.92690109  5.58234e-05    0.7048923  0.017838534            0   0.68705377    1.3555928    2.0604851    7.7768013 
 6210000   0.96244051 0.00013615447   0.63389989 0.0079746635            0   0.62592523    1.4075692    2.0414691    15.983687 
 6215000   0.99927319 8.8383795e-05   0.61046117            0            0   0.61046117     1.461437    2.0718982    11.122399 
 6220000   0.97728081 -5.0032883e-05   0.63745053 0.0074682498            0   0.62998228    1.4292732    2.0667237   -3.0566435 
 6225000    1.0176464 -7.5344547e-05   0.58506956  0.059287988            0   0.52578158    1.4883078    2.0733774   -5.6419043 
 6230000   0.94830888 -3.8089374e-05   0.66805121  0.011047312            0    0.6570039    1.3869017    2.0549529    -1.845399 
 6235000    1.0254747 -4.8946151e-05   0.55556985  0.010547956            0   0.54502189    1.4997567    2.0553265   -2.9567593 
 6240000    0.9677454 5.3715227e-05   0.62516485  0.013269262            0   0.61189559    1.4153276    2.0404925    7.5409317 
 6245000   0.99805532 0.00015846855   0.54257937 0.0065077914            0   0.53607158    1.4596559    2.0022353    18.229414 
 6250000   0.92715144 6.3545201e-05   0.60284375 0.0089573001            0   0.59388645     1.355959    1.9588027    8.4658313 
 6255000   0.89485925 4.9069831e-05   0.65353367  0.018877556            0   0.63465611    1.3087317    1.9622653     6.987016 
 6260000   0.88536731 8.2328398e-05   0.61929152  0.034243159            0   0.58504836    1.2948497    1.9141412    10.344569 
 6265000   0.88345682 2.7523079e-05   0.63853966  0.013194975            0   0.62534468    1.2920556    1.9305953    4.7489586 
 6270000    1.0037028 -1.0515953e-07   0.46579319 0.0010246949            0   0.46476849    1.4679153    1.9337085    1.9229402 
 6275000   0.93740424 -2.7999808e-05   0.58492352 0.0023349095            0   0.58258861    1.3709537    1.9558772  -0.91130316 
 6280000    1.0356535 -3.839528e-05   0.48654576 0.00086628863            0   0.48567947    1.5146433    2.0011891   -1.9304876 
 6285000    1.0828307 6.4828275e-05   0.42062835 0.0066390683            0   0.41398928    1.5836399    2.0042683    8.6426837 
 6290000   0.89160887 0.00013638334   0.65414333 0.0086152045            0   0.64552812     1.303978    1.9581213    15.923776 
 6295000    1.0821122 8.9132356e-05   0.40115732 0.0044281738            0   0.39672914    1.5825891    1.9837464      11.1109 
 6300000   0.98243225 -1.2863207e-06   0.55838974  0.017089401            0   0.54130034    1.4368072    1.9951969    1.8634777 
 6305000   0.93833472 -6.3932954e-05   0.63430018  0.015975222            0   0.61832496    1.3723145    2.0066147   -4.5401197 
 6310000    1.0092798 3.3084576e-06   0.54032324 0.0019520874            0   0.53837115    1.4760717    2.0163949    2.3551809 
 6315000    1.0455811 -2.971879e-05   0.48026003 0.0020824612            0   0.47817757    1.5291624    2.0094224   -1.0337816 
 6320000   0.99485698 -0.00014029125   0.55841221  0.019585704            0   0.53882651    1.4549783    2.0133905   -12.352434 
 6325000     1.008549 2.1034526e-05   0.52243055  0.017782791            0   0.50464775    1.4750029    1.9974335    4.1513689 
 6330000    1.0168786 7.2298252e-05   0.50725975 0.0068453208            0   0.50041443    1.4871849    1.9944447    9.3977857 
 6335000   0.95098793 -1.1917045e-05   0.60154767 0.0036371998            0   0.59791047    1.3908198    1.9923675   0.77206208 
 6340000    0.9842216 5.792047e-05   0.56057613  0.014687629            0    0.5458885    1.4394241    2.0000002    7.9310564 
 6345000   0.97761012 2.7878164e-05   0.59399826  0.011276791            0   0.58272147    1.4297548    2.0237531    4.8784771 
 6350000   0.98282217 -8.7112248e-06   0.60546916 0.0031296094            0   0.60233955    1.4373774    2.0428466    1.1508172 
 6355000   0.99909069 -3.1591331e-05   0.52220976  0.003886868            0   0.51832289    1.4611701    1.9833799   -1.2515724 
 6360000   0.95293474 -5.3066737e-05   0.59781423 0.00070465428            0   0.59710958    1.3936671    1.9914813   -3.4425525 
 6365000    1.0161497 -3.4505276e-05   0.53365831 5.4278174e-05            0   0.53360403    1.4861189    2.0197772   -1.5135631 
 6370000    1.0360165 -1.1510225e-05   0.50043418            0            0   0.50043418    1.5151742    2.0156084   0.83696129 
 6375000   0.99505042 1.2585488e-05   0.55206755            0            0   0.55206755    1.4552612    2.0073288    3.2960828 
 6380000   0.99037814 7.6822929e-05   0.57883533 0.0011938457            0   0.57764149     1.448428    2.0272634    9.8939313 
 6385000    1.0522805 3.0602319e-05   0.49709669 0.0061217251            0   0.49097497    1.5389603     2.036057    5.1697344 
 6390000    1.0600148 -4.6050216e-05   0.54810877 0.0081150195            0   0.53999375    1.5502716    2.0983804   -2.6171618 
 6395000    1.0055754 4.4796878e-05   0.60373377 0.0033249602            0   0.60040881    1.4706541    2.0743878    6.6615882 
 6400000    1.1292253 -2.0218401e-05   0.41141609            0            0   0.41141609     1.651492    2.0629081 -0.0074561794 
 6405000   0.96803362 -8.4791078e-05   0.62580388            0            0   0.62580388    1.4157492     2.041553   -6.6410534 
 6410000   0.94988975 1.0022108e-07   0.62923627            0            0   0.62923627    1.3892138      2.01845    2.0287127 
 6415000    1.0549673 4.4234691e-05    0.4585571            0            0    0.4585571    1.5428897    2.0014468    6.5310792 
 6420000    1.1072706 3.1392169e-05   0.34006537            0            0   0.34006537    1.6193833    1.9594487    5.1740067 
 6425000   0.93962988 -3.5514218e-05    0.5355936  0.015562019            0   0.52003158    1.3742087    1.9098023   -1.7268536 
 6430000   0.93238754 -3.9246758e-05   0.58156892   0.10629456            0   0.47527437    1.3636168    1.9451857   -2.0736823 
 6435000    1.0841761 -3.3373961e-05   0.41020628  0.071970748            0   0.33823553    1.5856076    1.9958139   -1.4216797 
 6440000    1.0068482 -6.9559516e-05   0.51602501  0.029806034            0   0.48621898    1.4725154    1.9885404    -5.134354 
 6445000   0.92290909 -6.0984773e-06   0.65671106  0.010142879            0   0.64656818    1.3497545    2.0064656    1.3819815 
 6450000    1.0076454 -1.8715141e-05   0.55006348 0.00016631525            0   0.54989716    1.4736815    2.0237449   0.10731445 
 6455000    1.0569745 1.1263814e-05   0.49450955            0            0   0.49450955    1.5458253    2.0403348    3.1937494 
 6460000    1.0059547 -2.1579492e-05   0.55302869  0.012611621            0   0.54041707    1.4712088    2.0242375  -0.18550256 
 6465000    1.0227377 -7.0866143e-05    0.5591574  0.035732487            0   0.52342492    1.4957539    2.0549113   -5.2017817 
 6470000   0.97925394 -3.413579e-05   0.62553882  0.036582154            0   0.58895666    1.4321589    2.0576977   -1.4378072 
 6475000     1.042718 5.7072858e-05   0.48365236  0.010030491            0   0.47362187     1.524975    2.0086274    7.8528881 
 6480000    1.0606962 8.3766997e-05   0.47363777 0.0032433846            0   0.47039439    1.5512681    2.0249059    10.602646 
 6485000   0.90003022 -8.9360339e-05   0.68736248 0.0087868818            0    0.6785756    1.3162942    2.0036567   -7.1468421 
 6490000    1.0130579 6.770893e-05   0.49072302 0.0061420399            0   0.48458098    1.4815971    1.9723201    8.9057146 
 6495000    1.0110407 4.4350569e-05   0.52369901  0.009284661            0   0.51441435     1.478647     2.002346    6.5438442 
 6500000    0.9897462 -3.5614321e-05   0.58017141  0.017030485            0   0.56314093    1.4475038    2.0276752   -1.6192312 
 6505000   0.86418579 -3.9814744e-05   0.70233692  0.088839977            0   0.61349694    1.2638717    1.9662086   -2.1108211 
 6510000   0.98347506 8.6264921e-07   0.54688007  0.043921351            0   0.50295872    1.4383323    1.9852124    2.0735476 
 6515000   0.96104323 -1.404773e-05   0.61556901  0.043463337            0   0.57210568    1.4055257    2.0210947   0.58260714 
 6520000   0.96250145 9.7048143e-05   0.60195342  0.020589065            0   0.58136436    1.4076584    2.0096118    11.947342 
 6525000    1.0773212 -8.6200212e-05   0.41887468 0.0078844148            0   0.41099027    1.5755823     1.994457   -6.8324447 
 6530000    1.0288521 -4.1154997e-05   0.48772731 0.00091074137            0   0.48681656    1.5046962    1.9924235   -2.2218483 
 6535000    1.0524081 4.5500295e-05   0.48160611            0            0   0.48160611    1.5391468     2.020753    6.6799831 
 6540000    1.0009301 -5.9114649e-05   0.53427714            0            0   0.53427714    1.4638603    1.9981374   -4.0552027 
 6545000    1.0424133 0.00011345323   0.44613987            0            0   0.44613987    1.5245295    1.9706693     13.58828 
 6550000    0.9693116 -1.018812e-05    0.5069192 0.0043473313            0   0.50257187    1.4176182    1.9245374   0.88127394 
 6555000   0.99017195 -6.6660733e-05   0.47244542  0.019736999            0   0.45270842    1.4481265    1.9205719   -4.9054871 
 6560000    1.0371526 5.4194696e-05   0.40921115 0.0069496101            0   0.40226154    1.5168357    1.9260468    7.4755837 
 6565000   0.95412646 -1.084862e-05    0.5611755            0            0    0.5611755      1.39541    1.9565854   0.84568679 
 6570000   0.99161759 0.00011865561   0.47586888            0            0   0.47586888    1.4502407    1.9261096    14.076444 
 6575000   0.95207326 2.5131038e-05   0.55353731            0            0   0.55353731    1.3924071    1.9459445    4.5193627 
 6580000    1.0035262 8.9268832e-05   0.46959597 0.0030236398            0   0.46657233    1.4676571    1.9372531    11.078382 
 6585000    1.0349001 -2.2627167e-06   0.44607525  0.033262062            0   0.41281318    1.5135414    1.9596167    1.7279145 
 6590000    1.0940864 -1.070032e-05   0.40108596  0.025318677            0   0.37576729    1.6001013    2.0011873   0.90547448 
 6595000     1.062698 2.7446012e-05   0.44951418   0.03827533            0   0.41123885    1.5541958      2.00371    4.8141816 
 6600000   0.88915839 -0.00014348322    0.7103954  0.045269907            0    0.6651255    1.3003941    2.0107895   -12.681892 
 6605000   0.99129443 -4.7911467e-05    0.5689887 0.0038339568            0   0.56515475    1.4497681    2.0187568   -2.8873774 
 6610000    1.1335625 -3.8680818e-05   0.38106238  0.000209766            0   0.38085261    1.6578352    2.0388976   -1.9220182 
 6615000    1.0065387 -2.8208667e-05   0.52808219 1.2475728e-05            0   0.52806971    1.4720628     2.000145  -0.88842253 
 6620000    1.0166317 5.4931406e-05   0.53094387 0.0023780822            0   0.52856579    1.4868238    2.0177677    7.6427436 
 6625000    1.0394737 -6.8717838e-05   0.48842524  0.012037004            0   0.47638824    1.5202303    2.0086555   -5.0280511 
 6630000   0.99570826 -0.00012746797   0.51668403  0.014586234            0    0.5020978    1.4562233    1.9729074   -11.079813 
 6635000   0.92859996 -4.3004916e-06   0.62920105   0.01186948            0   0.61733157    1.3580774    1.9872785    1.5469081 
 6640000   0.97340805 3.2043465e-05   0.59558791  0.039340061            0   0.55624785    1.4236093    2.0191972     5.300448 
 6645000    0.9567065 -2.5833319e-05   0.59536391   0.01792055            0   0.57744336    1.3991833    1.9945472  -0.65078471 
 6650000    0.8842247 -0.00013191568   0.71374569  0.015823433            0   0.69792225    1.2931786    2.0069243   -11.501241 
 6655000   0.95944933 -0.00015579725   0.62636999  0.017952633            0   0.60841736    1.4031946    2.0295646   -13.924074 
 6660000   0.98431032 -3.8993749e-05   0.63844113 0.0042302118            0   0.63421091    1.4395538     2.077995   -1.9149649 
 6665000    1.0616244 -8.0375452e-06   0.51724646  0.001762317            0   0.51548415    1.5526257    2.0698721    1.2468275 
 6670000   0.98815641 9.0539121e-06   0.62486868 0.0066480813            0    0.6182206    1.4451787    2.0700474     2.997168 
 6675000   0.98685281 9.7202744e-05   0.71055184 0.0069337213            0   0.70361812    1.4432722    2.1538241    12.107385 
 6680000    1.1250342 -1.8517171e-05   0.51870821 0.0083506581            0   0.51035755    1.6453626    2.1640708   0.26791247 
 6685000    1.0695803  -4.8509e-05   0.61761808  0.011107087            0   0.60651099    1.5642611    2.1818792   -2.7854424 
 6690000   0.98150534 8.3289354e-05   0.71517944  0.014813546            0    0.7003659    1.4354516     2.150631    10.679461 
 6695000    1.1333868 8.3777168e-05   0.46052352  0.011889898            0   0.44863362    1.6575782    2.1181017    10.696884 
 6700000    0.9307489 -3.577714e-05   0.77506611 0.0016678631            0   0.77339825    1.3612203    2.1362864   -1.5272927 
 6705000    1.1723599 -2.6474368e-05   0.39282107  0.004394658            0   0.38842641    1.7145764    2.1073974  -0.60357784 
 6710000   0.85807235 -9.0289609e-05   0.84488058 0.0037507551            0   0.84112982    1.2549308    2.0998114   -7.1458446 
 6715000   0.96667846 -0.00011634576   0.63493224 0.0014417913            0   0.63349045    1.4137673    2.0486995   -9.8651066 
 6720000    1.0721148 4.3364082e-05   0.49005198  0.014515661            0   0.47553632    1.5679679    2.0580199    6.4985019 
 6725000    1.0149444 0.00014499797   0.55915398  0.021278223            0   0.53787576    1.4843562    2.0435102    16.891302 
 6730000    1.0086112 1.3975168e-05   0.56678685 0.0067902009            0   0.55999665    1.4750939    2.0418807    3.4729379 
 6735000    1.0592847 -4.6140806e-05   0.51504283 0.0035801751            0   0.51146266    1.5492039    2.0642467   -2.6605718 
 6740000   0.96478522 5.6592522e-05   0.65669972  0.073080391            0   0.58361933    1.4109984    2.0676981    7.8627724 
 6745000   0.99612376 -6.3188914e-05   0.58655597  0.027115486            0   0.55944048     1.456831     2.043387   -4.4271578 
 6750000   0.92479277 -5.3140879e-05    0.7131932  0.022488599            0    0.6907046    1.3525094    2.0657026   -3.3759234 
 6755000    1.0216986 -0.00011782989   0.57966937  0.016686189            0   0.56298319    1.4942343    2.0739036   -9.9918771 
 6760000    1.1500909 3.3619132e-05   0.42010424 0.0032707714            0   0.41683347    1.6820079    2.1021122    5.5447113 
 6765000    1.0453722 -1.6411666e-07   0.59272786  0.021551977            0   0.57117588    1.5288568    2.1215846    2.1047791 
 6770000    1.0972785 -1.3524414e-05   0.55648869  0.044232467            0   0.51225623    1.6047699    2.1612586   0.77635861 
 6775000    1.1336968 6.0494155e-05   0.51396075  0.064283709            0   0.44967704    1.6580316    2.1719923    8.3665938 
 6780000    1.0353155 3.5819897e-06   0.67033061  0.082844737            0   0.58748588     1.514149    2.1844796    2.5512753 
 6785000    1.1224595 -4.4260199e-05   0.57543761  0.013991032            0   0.56144658     1.641597    2.2170346   -2.3152097 
 6790000    1.2135373 -4.1546033e-05   0.41884862 0.0010581169            0    0.4177905    1.7747982    2.1936468   -2.0606669 
 6795000    1.0326482 2.2477013e-05   0.70408962  0.022518005            0   0.68157161     1.510248    2.2143377    4.5159838 
 6800000    1.2181611 7.6780578e-05    0.4633924   0.04125137            0   0.42214103    1.7815605    2.2449529    10.107284 
 6805000    1.1443949 -7.9786906e-05    0.6397003  0.023598659            0   0.61610164    1.6736776    2.3133779   -5.8568013 
 6810000    1.1240125 -0.00011004636    0.6184413  0.066707933            0   0.55173337    1.6438683    2.2623096   -9.0064375 
 6815000    1.1338277 -7.5785464e-05   0.61965335  0.054344652            0    0.5653087    1.6582229    2.2778763   -5.4825553 
 6820000    1.1628176 -5.589053e-05   0.57856865  0.020779009            0   0.55778964    1.7006208    2.2791894   -3.4440009 
 6825000    1.1992061 0.00012294228   0.55172933  0.022454021            0   0.52927531     1.753839    2.3055683    14.894858 
 6830000    1.3481184 6.868216e-05    0.3497876 0.0053865167            0   0.34440108    1.9716232    2.3214108     9.354464 
 6835000    1.1300417 -0.00011004736   0.67361872 0.0031795222            0    0.6704392     1.652686    2.3263047   -8.9425444 
 6840000     1.263082 4.4553936e-05   0.52150227  0.022950443            0   0.49855182    1.8472575    2.3687597    6.9310828 
 6845000     1.180975 5.6580194e-05   0.59325071  0.031548611            0    0.5617021     1.727176    2.3204267    8.1142385 
 6850000    1.1055732 -6.4544491e-05   0.64776152  0.044117454            0   0.60364407    1.6169008    2.2646623   -4.3446935 
 6855000    1.1040535 2.6684495e-05    0.6481734  0.029169522            0   0.61900388    1.6146783    2.2628517    4.9953439 
 6860000    1.1311146 8.0534773e-05   0.60467694 0.0027778806            0   0.60189906    1.6542551     2.258932    10.505693 
 6865000    1.1567166 4.7567834e-05   0.56428819 0.00088122393            0   0.56340697     1.691698    2.2559862    7.1269323 
 6870000    1.1383662 0.00010236221   0.56745608 0.0047642667            0   0.56269181    1.6648605    2.2323166    12.714207 
 6875000     1.132987  4.49307e-05   0.59400249  0.035952521            0   0.55804997    1.6569935     2.250996    6.8518997 
 6880000    1.2080595 -9.9614527e-06    0.5195825  0.039435651            0   0.48014684     1.766787    2.2863695    1.2663167 
 6885000    1.1067815 3.0928076e-05   0.67627511  0.036450471            0   0.63982464    1.6186679     2.294943     5.461978 
 6890000    1.1661314 -7.0170174e-05   0.56557851  0.018891866            0   0.54668665    1.7054671    2.2710456   -4.9143802 
 6895000    1.1887532 -5.9835704e-05   0.55234629  0.082820573            0   0.46952572    1.7385516    2.2908979   -3.8362782 
 6900000    1.1112477 -3.8856582e-05   0.64706753  0.089363538            0   0.55770399    1.6251997    2.2722672   -1.7066467 
 6905000    1.1690353 -6.1831091e-05   0.58553385  0.016158438            0   0.56937541    1.7097142     2.295248   -4.0362556 
 6910000    1.2145034 -1.5066158e-05   0.50036631  0.012956815            0   0.48740949    1.7762113    2.2765776     0.733803 
 6915000    1.1431255 9.6081458e-05   0.63126864 0.0062538836            0   0.62501476     1.671821    2.3030897    12.141831 
 6920000    1.1525209 6.4117808e-06   0.58938869 0.0045892082            0   0.58479949    1.6855618    2.2749505    2.9315169 
 6925000    1.1427012 -9.6445028e-05   0.58461495  0.020138574            0   0.56447638    1.6712004    2.2558154   -7.6201555 
 6930000    1.1420326 -2.8157739e-05   0.60427089  0.012686663            0   0.59158423    1.6702227    2.2744936  -0.60885883 
 6935000    1.2380116 1.8386082e-05   0.49547835  0.011277687            0   0.48420066    1.8105919    2.3060702     4.188805 
 6940000     1.032717 2.5097919e-05   0.74561635  0.042190257            0   0.70342609    1.5103486    2.2559649    4.8259918 
 6945000    1.2206641 -2.2087797e-05   0.50509705  0.016834581            0   0.48826247    1.7852212    2.2903183  0.028527851 
 6950000     1.160501 -1.1069936e-05   0.62722152            0            0   0.62722152    1.6972328    2.3244543    1.1908928 
 6955000    1.1550916 2.2998599e-05   0.66535599 0.0034809764            0   0.66187501    1.6893214    2.3546774     4.709734 
 6960000     1.260114 -4.65961e-05   0.48537934  0.026381688            0   0.45899765    1.8429167     2.328296   -2.4431446 
 6965000    1.1627702 -2.5503617e-05   0.59867195  0.064471705            0   0.53420024    1.7005513    2.2992233  -0.31234704 
 6970000    1.1051906 4.4076778e-05   0.66228122  0.034727543            0   0.62755368    1.6163413    2.2786225    6.7920846 
 6975000    1.2426097 -2.2080472e-05    0.4748543  0.013293476            0   0.46156082    1.8173166    2.2921709  0.031130563 
 6980000    1.0440231 -0.00018331393   0.75916746 0.0031737574            0    0.7559937    1.5268837    2.2860512   -16.485295 
 6985000    1.1720701 -6.8771375e-05   0.58026171 0.0017879142            0    0.5784738    1.7141525    2.2944143   -4.7477746 
 6990000    1.1807552 4.8694273e-05   0.58737095  0.048491584            0   0.53887937    1.7268545    2.3142255     7.300519 
 6995000     1.174733 -1.6696526e-05    0.5791501  0.086081896            0    0.4930682     1.718047    2.2971971   0.58747283 
 7000000    1.0420314 -7.8517223e-05   0.79619157   0.13924976            0    0.6569418    1.5239709    2.3201625   -5.7200011 
 7005000    1.1719893 -4.0137589e-05   0.59587886  0.018450245            0   0.57742862    1.7140344    2.3099133   -1.8001758 
 7010000    1.1950044 1.0462003e-05   0.55628817 0.0049884433            0   0.55129973     1.747694    2.3039821    3.3752913 
 7015000    1.1833715 -5.283833e-05   0.54244731 4.6710452e-05            0    0.5424006    1.7306808    2.2731282   -3.1375169 
 7020000    1.1263642 -4.3202094e-05   0.63424087 8.2180168e-06            0   0.63423265    1.6473076    2.2815485    -2.142346 
 7025000    1.2513788 3.1489684e-05   0.44749326 0.0023056524            0    0.4451876    1.8301415    2.2776347    5.5021783 
 7030000    1.1479404 0.00010944598   0.59817899 0.0091755878            0    0.5890034    1.6788628    2.2770418     13.48431 
 7035000    1.1661399 3.141226e-06   0.57354099  0.012767064            0   0.56077392    1.7054796    2.2790206    2.6006821 
 7040000    1.1268652 -2.9138475e-05   0.64558435  0.065922133            0   0.57966222    1.6480403    2.2936246  -0.69015524 
 7045000    1.1656097 -7.1191462e-05   0.64701559  0.028802289            0    0.6182133    1.7047042    2.3517197   -4.9382859 
 7050000    1.2440437 -3.4478057e-05   0.48349914   0.02454011            0   0.45895903    1.8194139     2.302913     -1.22764 
 7055000    1.1366587 5.050912e-05   0.63115346  0.033858494            0   0.59729497    1.6623633    2.2935168    7.4656507 
 7060000    1.2093095 3.7555583e-05   0.50949754  0.046510669            0   0.46298687    1.7686152    2.2781127    6.1238044 
 7065000    1.1285865 5.1775558e-05   0.59348155  0.051010992            0   0.54247056    1.6505578    2.2440393    7.5458564 
 7070000    1.1794896 -2.9674075e-05   0.52375242  0.023626433            0   0.50012598    1.7250035    2.2487559  -0.78986939 
 7075000    1.1842472 2.6563387e-05   0.47824232  0.026580988            0   0.45166133    1.7319615    2.2102039    4.9302947 
 7080000   0.99811499 4.8793645e-05   0.73228435  0.044742519            0   0.68754183    1.4597432    2.1920275    7.1884968 
 7085000    1.1562627 5.6557831e-05   0.50087624   0.09777693            0   0.40309931    1.6910343    2.1919105    7.9834324 
 7090000    1.1307721 6.5868045e-05   0.56493893  0.012325945            0   0.55261299    1.6537542    2.2186932    8.9635809 
 7095000    1.1058355 6.9501811e-05   0.57836003 0.0051441607            0   0.57321587    1.6172844    2.1956444    9.3126299 
 7100000    1.1817914 3.7345483e-05   0.47040703 0.00059948655            0   0.46980754      1.72837     2.198777    6.0229544 
 7105000    1.1830495 1.087407e-05   0.44665553 0.0029045855            0   0.44375095    1.7302099    2.1768655    3.2903703 
 7110000    1.1589479 1.6794275e-05   0.53501121 0.0026726721            0   0.53233854    1.6949614    2.2299726    3.9497063 
 7115000    1.0554509 3.838914e-05   0.66726781  0.020239896            0   0.64702791     1.543597    2.2108648    6.1419127 
 7120000   0.95518224 -2.4460334e-05   0.77903424  0.053525783            0   0.72550846     1.396954    2.1759883   -0.3287499 
 7125000     1.132603 0.00011704319   0.51939841  0.014519367            0   0.50487904    1.6564319    2.1758303    14.161053 
 7130000    1.0324339 0.00014406781   0.69542558 0.0032993917            0   0.69212619    1.5099345    2.2053601    16.957903 
 7135000    1.1966822 -2.9378388e-05    0.3652552  0.014666351            0   0.35058884    1.7501477    2.1154029  -0.89294408 
 7140000    1.1074189 -1.2066681e-05   0.51756872   0.00742188            0   0.51014684    1.6196002    2.1371689   0.90154083 
 7145000    1.0895599 1.4908218e-05   0.51631271  0.018945498            0   0.49736721    1.5934814    2.1097941    3.6363956 
 7150000    1.0638479 -1.3194498e-05   0.53655943   0.02132863            0    0.5152308    1.5558775    2.0924369   0.74132035 
 7155000    1.0934121 -2.3057648e-05   0.47449857  0.018999032            0   0.45549954    1.5991152    2.0736137  -0.28748944 
 7160000    1.0079603 4.4956081e-05   0.56492283  0.015200241            0   0.54972259     1.474142    2.0390648    6.6425675 
 7165000    1.0445981 4.6720276e-05   0.51398975 0.0021061825            0   0.51188357    1.5277247    2.0417144    6.8258707 
 7170000   0.95804458 -5.8963124e-05   0.58372514            0            0   0.58372514    1.4011402    1.9848653   -4.0529586 
 7175000   0.95828217 -5.5197199e-05   0.61787035 0.00010746317            0   0.61776288    1.4014877     2.019358   -3.6328352 
 7180000   0.96184721 -9.3681247e-06   0.60553842 0.0029001281            0    0.6026383    1.4067015      2.01224     1.052944 
 7185000   0.98433931 4.1927868e-06   0.57755721 0.0031126386            0   0.57444457    1.4395962    2.0171535    2.4464948 
 7190000    1.0328899 4.204345e-05   0.51529645 0.0086767596            0   0.50661969    1.5106014    2.0258979    6.3311472 
 7195000   0.93284801 2.2809522e-05   0.64238081  0.049957145            0   0.59242366    1.3642902     2.006671    4.3423661 
 7200000   0.98606483 5.8609223e-05   0.55635385  0.010900269            0   0.54545358    1.4421198    1.9984737    8.0000581 
 7205000    1.0174628 6.4350947e-05   0.50914564  0.042666264            0   0.46647938    1.4880393    1.9971849    8.5867219 
 7210000   0.92344675 1.8072786e-05   0.67564882  0.067787548            0   0.60786127    1.3505409    2.0261897     3.876843 
 7215000    1.0134188 -3.0491698e-05   0.59903236    0.0243115            0   0.57472086     1.482125    2.0811574   -1.0411925 
 7220000   0.97498691 -5.1736211e-05   0.65970564 0.0039829138            0   0.65572273    1.4259184     2.085624    -3.212164 
 7225000    1.0273803 2.2702794e-05    0.6065682 0.00038504369            0   0.60618316    1.5025437    2.1091119     4.433878 
 7230000      1.09764 -1.7301722e-05   0.54375539  0.019042253            0   0.52471313    1.6052986    2.1490539   0.37735757 
 7235000    1.0177334 -3.6076629e-05   0.67928074  0.025895775            0   0.65338497    1.4884351    2.1677158    -1.526531 
 7240000    1.0149851 5.7002044e-05   0.62095775  0.010921232            0   0.61003652    1.4844157    2.1053735    7.9423828 
 7245000     1.086805 -7.5763527e-05   0.48885177 0.0047419625            0    0.4841098    1.5894523    2.0783041   -5.6798811 
 7250000    1.0169048 -0.00010588888   0.55991269 0.00066306462            0   0.55924963    1.4872232    2.0471359   -8.7958855 
 7255000   0.98533355 -1.0834995e-05    0.5799351  0.013947272            0   0.56598783    1.4410503    2.0209854   0.91148193 
 7260000   0.89763116 6.7347937e-06   0.74679279  0.031336938            0   0.71545585    1.3127856    2.0595784    2.7492212 
 7265000   0.97155367 3.1723885e-05   0.66581039  0.027100566            0   0.63870983    1.4208972    2.0867076    5.3352335 
 7270000    1.0431754 -0.00010637556   0.51574079 0.0080701317            0   0.50767066     1.525644    2.0413848   -8.8514727 
 7275000   0.99432088 -0.00011078512   0.59041225  0.003350028            0   0.58706222    1.4541943    2.0446065   -9.2997898 
 7280000   0.95218205 4.5309689e-05   0.64837209  0.000210899            0   0.64816119    1.3925662    2.0409383    6.6806505 
 7285000   0.99876873 4.9435166e-05   0.58991615 0.0016642525            0    0.5882519    1.4606993    2.0506154    7.1127764 
 7290000    1.0340905 -2.091899e-05   0.52715342  0.015280831            0   0.51187259    1.5123574    2.0395108  -0.10259376 
 7295000   0.89664761 -6.9679469e-05    0.7205079  0.034345229            0   0.68616267    1.3113471     2.031855   -5.1033226 
 7300000    1.0223535 -4.803254e-05   0.55162434  0.022012683            0   0.52961165     1.495192    2.0468164   -2.8717158 
 7305000   0.99098973 -2.2763272e-06   0.64631636  0.015304218            0   0.63101215    1.4493225    2.0956388    1.8625429 
 7310000   0.92553292 -5.1205569e-06   0.73976988  0.054208683            0    0.6855612    1.3535919    2.0933618    1.5690167 
 7315000   0.92703233 -4.6585863e-05   0.73299601  0.058671434            0   0.67432458    1.3557848    2.0887808   -2.6816116 
 7320000    1.0145838 -8.9630707e-05   0.59869499  0.063198002            0   0.53549698    1.4838288    2.0825238   -7.0956605 
 7325000    1.0644518 -3.682846e-05   0.58861643  0.046186494            0   0.54242994    1.5567608    2.1453772   -1.6258571 
 7330000    1.1193155 -1.5674423e-05   0.52768789 0.0038012774            0   0.52388661    1.6369989    2.1646868   0.55962594 
 7335000    1.1042666 3.7892425e-05   0.56254175   0.00172941            0   0.56081234    1.6149898    2.1775316    6.0577159 
 7340000    1.0340167 0.00010581429   0.67195668 0.0052861796            0    0.6666705    1.5122495    2.1842061     13.01959 
 7345000    1.0796838 5.687126e-05   0.59116331   0.01411996            0   0.57704335    1.5790376    2.1702009    7.9938179 
 7350000    1.1978469 1.2812101e-05   0.43951094  0.011636393            0   0.42787455    1.7518511     2.191362    3.5033211 
 7355000    1.0371861 2.990525e-05   0.65001408 0.0047990891            0   0.64521499    1.5168847    2.1668987    5.2291963 
 7360000   0.97646672 -1.6056013e-05   0.77398709 0.0063335433            0   0.76765355    1.4280826    2.2020697   0.55793396 
 7365000    1.0256782 -3.7258404e-05   0.66280019  0.022546229            0   0.64025396    1.5000544    2.1628546   -1.6524059 
 7370000    1.0149844 1.7043381e-05   0.70797597  0.013653948            0   0.69432202    1.4844147    2.1923907    3.9376329 
 7375000    1.0538689 1.0106338e-05   0.65986773  0.031119113            0   0.62874862    1.5412833     2.201151    3.2360401 
 7380000   0.92117804 -5.2936275e-05   0.84505054  0.028912543            0   0.81613799    1.3472229    2.1922734   -3.2284012 
 7385000    1.0533564 1.6248249e-05   0.62018252 0.0076934573            0   0.61248907    1.5405338    2.1607163     3.824537 
 7390000    1.1374991 3.8899511e-05   0.50330645  0.010773512            0   0.49253294    1.6635924    2.1668989    6.1502088 
 7395000    1.0394112 -3.4814338e-05   0.55779813   0.02877038            0   0.52902775    1.5201388     2.077937   -1.4870513 
 7400000    1.0267446 -6.4664069e-05   0.53096138  0.020035259            0   0.51092613     1.501614    2.0325754   -4.5890253 
 7405000    1.0450947 2.6438171e-05   0.52501088 0.0015838546            0   0.52342702     1.528451    2.0534619    4.7607306 
 7410000    1.0766218 6.4909425e-05   0.49262549 0.00055067911            0   0.49207481    1.5745594    2.0671849      8.71391 
 7415000    1.0387778 -5.8671381e-05   0.54145759 0.0013414791            0   0.54011611    1.5192125    2.0606701   -3.9472794 
 7420000   0.99421944 -7.4321963e-05   0.61402524 0.0033289289            0   0.61069631    1.4540459    2.0680712   -5.5424978 
 7425000   0.99776366 -9.7140895e-06   0.60285797 0.0074753612            0   0.59538261    1.4592294    2.0620873    1.0673646 
 7430000    1.1722593 -3.388431e-05   0.36600593  0.012735229            0    0.3532707    1.7144293    2.0804352   -1.3893181 
 7435000   0.97114497 6.7344482e-05   0.63245799 0.0082373756            0   0.62422062    1.4202995    2.0527575    8.9488325 
 7440000    1.0405514 0.00013022692   0.52140544 0.00091785427            0   0.52048759    1.5218065    2.0432119    15.378448 
 7445000    1.0699148 3.1737196e-05   0.48973265            0            0   0.48973265    1.5647503     2.054483    5.3043718 
 7450000    1.1056605 2.9863953e-06   0.47861091            0            0   0.47861091    1.6170285    2.0956394    2.4014463 
 7455000    0.8339467 -1.4569046e-05    0.8940336            0            0    0.8940336     1.219647    2.1136806    0.6218103 
 7460000     1.100316 -3.6750638e-05   0.50142048            0            0   0.50142048    1.6092122    2.1106326   -1.6526327 
 7465000    1.0463214 -4.5082045e-05    0.5864991 0.0033808285            0   0.58311827     1.530245    2.1167441   -2.4996573 
 7470000    1.1097898 -3.6560241e-06   0.52747896  0.028588842            0   0.49889012    1.6230676    2.1505466    1.7761697 
 7475000   0.97450353 6.3984663e-05   0.71211475  0.068882043            0   0.64323271    1.4252114    2.1373262    8.6893557 
 7480000    1.0302206 -3.5876762e-05   0.67128246   0.10032614            0   0.57095632    1.5066976    2.1779801   -1.4958003 
 7485000    1.0583205 1.5115107e-05   0.63287664  0.084856879            0   0.54801976    1.5477937    2.1806703    3.7284572 
 7490000    1.2139856 4.8845451e-05   0.43411504 0.0054329763            0   0.42868206    1.7754539    2.2095689    7.2113431 
 7495000    1.0835158 7.9148813e-05    0.6393843 0.0036223322            0   0.63576197    1.5846419    2.2240262    10.328865 
 7500000    1.1606107 4.9801015e-05   0.53281456   0.01277906            0    0.5200355    1.6973932    2.2302077    7.3298316 
 7505000    1.1046707 -7.1065734e-05   0.59695282  0.021486397            0   0.57546643    1.6155808    2.2125337   -5.0645975 
 7510000     1.050682 3.3479958e-05    0.6507631  0.031991148            0   0.61877195    1.5366224    2.1873855    5.6157331 
 7515000    1.1607025 0.00013638195   0.52107549 0.0045693293            0   0.51650617    1.6975274    2.2186029    16.184114 
 7520000    1.0481364 0.00012331423   0.70998217            0            0   0.70998217    1.5328994    2.2428816    14.870259 
 7525000    1.1905632 4.424161e-05   0.47290401            0            0   0.47290401    1.7411987    2.2141027    6.7444435 
 7530000    1.0251766 -5.4873466e-05   0.74927932 0.00074170798            0   0.74853761    1.4993207    2.2486001   -3.3704429 
 7535000    1.1514494 -2.6580707e-05   0.60157814  0.010718675            0   0.59085947    1.6839948    2.2855729   -0.4362915 
 7540000    1.0976469 1.6493951e-05   0.69070603   0.07771122            0   0.61299481    1.6053086    2.2960146    3.9849952 
 7545000    1.1136978 5.0371472e-06   0.66886349  0.067034989            0    0.6018285     1.628783    2.2976465    2.8134504 
 7550000     1.198194 -3.1837932e-05   0.57620975  0.021579315            0   0.55463043    1.7523587    2.3285684  -0.93163577 
 7555000    1.1445795 -2.2073284e-05   0.63013287  0.018300776            0   0.61183209    1.6739475    2.3040804  0.043776133 
 7560000    1.1346207 4.0926356e-05   0.68792016  0.065144998            0   0.62277516    1.6593828    2.3473029    6.5381618 
 7565000    1.1008793 5.9794506e-05   0.74997063  0.050467774            0   0.69950285     1.610036    2.3600066    8.4829641 
 7570000    1.1053687 -3.1107005e-05   0.74174482  0.048923968            0   0.69282085    1.6166018    2.3583466   -0.8270107 
 7575000    1.2264623  1.32135e-05   0.55436324  0.017018839            0    0.5373444    1.7937011    2.3480644    3.7011268 
 7580000    1.2383815 4.7680439e-05   0.57985761            0            0   0.57985761     1.811133    2.3909906    7.2734675 
 7585000    1.2201058 -7.8152248e-05   0.59900904 0.0022975914            0   0.59671145    1.7844048    2.3834138   -5.6193764 
 7590000     1.255161 -4.9341312e-05   0.54439117  0.014897766            0    0.5294934     1.835673    2.3800641   -2.6724862 
 7595000    1.2696612 4.208074e-05   0.54636488 0.0048666291            0   0.54149825    1.8568794    2.4032443    6.7123121 
 7600000    1.1606349 -1.3434142e-05   0.76856211 0.0022173266            0   0.76634478    1.6974286    2.4659907    1.0903345 
 7605000    1.1755349 -6.3254508e-05   0.71648219 0.0079782461            0   0.70850395    1.7192198     2.435702   -4.0415596 
 7610000    1.3202114 -3.3802769e-05   0.51858898  0.039666827            0   0.47892215    1.9308092    2.4493981   -1.0120054 
 7615000    1.0350831 -5.3451133e-05   0.92231368  0.030746791            0   0.89156689    1.5138091    2.4361228   -3.0372733 
 7620000    1.2265264 -3.3205651e-05   0.59787053 0.0084162706            0   0.58945426    1.7937948    2.3916653   -1.0085933 
 7625000    1.2074323 -3.9752688e-05   0.57205692  0.010492814            0   0.56156411    1.7658697    2.3379266   -1.7327486 
 7630000    1.1945494 -1.4898573e-05   0.60197775   0.00658152            0   0.59539623    1.7470285    2.3490063   0.82339237 
 7635000    1.2383996 1.228132e-05   0.54942626  0.015860924            0   0.53356533    1.8111594    2.3605856    3.6181928 
 7640000    1.1137746 -2.6134112e-05   0.80958541 0.0098327021            0   0.79975271    1.6288953    2.4384807  -0.23765233 
 7645000    1.2808114 -4.876526e-05   0.51338217 0.0056294789            0   0.50775269    1.8731866    2.3865688   -2.6069938 
 7650000     1.290802 -6.7525178e-05   0.58694575  0.015515978            0   0.57142978    1.8877979    2.4747437   -4.4398346 
 7655000    1.1502659 -7.6145244e-06   0.77555436  0.018808015            0   0.75674635    1.6822638    2.4578182    1.6780909 
 7660000    1.2240263 -2.8803349e-05   0.67339758 0.0073101592            0   0.66608742    1.7901385    2.4635361   -0.4859269 
 7665000    1.3237298 -0.00011292732   0.48684262 0.0050443679            0   0.48179825    1.9359548    2.4227974   -9.1409606 
 7670000    1.2499875 -0.00011012171   0.56598887 0.0014339927            0   0.56455488    1.8281067    2.3940956   -8.8823671 
 7675000    1.2816532 3.3220966e-05   0.56813554 0.0020790113            0   0.56605653    1.8744179    2.4425534    5.8443803 
 7680000    1.1952519 0.00010527365   0.70415197  0.014449662            0    0.6897023    1.7480559    2.4522079     13.23223 
 7685000    1.2847109 3.6624018e-05     0.581993  0.072733507            0   0.50925949    1.8788897    2.4608827    6.2111822 
 7690000    1.2692418 1.3661929e-05   0.61568094  0.084317203            0   0.53136374    1.8562661     2.471947    3.8709285 
 7695000    1.2159865 3.2709203e-05   0.70544433  0.032861114            0   0.67258322    1.7783802    2.4838246    5.8332469 
 7700000    1.2399651 -3.9317219e-05   0.63208945  0.024908677            0   0.60718077     1.813449    2.4455384   -1.5805448 
 7705000      1.21776 -2.0049831e-05   0.68424548  0.042877852            0   0.64136763     1.780974    2.4652194   0.41211671 
 7710000    1.2525022 9.9589533e-05   0.62822538  0.062529057            0   0.56569633    1.8317845    2.4600099    12.657978 
 7715000    1.2817288 5.4759551e-05   0.58419839  0.047210788            0    0.5369876    1.8745283    2.4587267    8.0661047 
 7720000     1.221894 -4.0231533e-05   0.69354797    0.0426446            0   0.65090337      1.78702    2.4805679   -1.6391411 
 7725000    1.2544161 -2.2679329e-05   0.64638652   0.08517449            0   0.56121202    1.8345836    2.4809701   0.15860685 
 7730000    1.2559354 -1.3787952e-05   0.65006188  0.071152596            0   0.57890928    1.8368055    2.4868674    1.0749811 
 7735000    1.1920905 -3.0958749e-05   0.69942622  0.024140891            0   0.67528533    1.7434323    2.4428585  -0.72731742 
 7740000    1.3099393 -3.5984456e-05   0.54038167   0.02223297            0    0.5181487    1.9157862    2.4561678   -1.2286405 
 7745000    1.2664377 -4.6937825e-05   0.55587658  0.031871481            0    0.5240051    1.8521652    2.4080417   -2.3983916 
 7750000    1.1918141 -2.4387852e-05   0.61421995  0.055622608            0   0.55859734    1.7430281    2.3572481  -0.14006803 
 7755000    1.1901728 -2.7069046e-05   0.57518755  0.033581949            0    0.5416056    1.7406277    2.3158152  -0.45605509 
 7760000    1.2692366 -8.0056146e-06   0.47453047  0.067741213            0   0.40678925    1.8562585     2.330789     1.511014 
 7765000    1.1117904 6.6267784e-05   0.69315336  0.072072018            0   0.62108134    1.6259935    2.3191469     9.104968 
 7770000    1.1325083 -8.786242e-06   0.67063768  0.021857812            0   0.64877986    1.6562934    2.3269311    1.4272199 
 7775000    1.2442523 -6.7065556e-05   0.51290074 0.0030027707            0   0.50989797     1.819719    2.3326197   -4.5348932 
 7780000    1.2046139 -1.2949759e-05   0.54288955 0.0067436418            0    0.5361459    1.7617478    2.3046373   0.97858207 
 7785000    1.1938376 3.7479462e-05   0.52827017 0.0083796855            0   0.51989048    1.7459874    2.2742576    6.1121545 
 7790000    1.0025483 7.6438864e-05   0.82441597 0.0057888264            0   0.81862714    1.4662269    2.2906429    10.117983 
 7795000    1.1943034 1.4229181e-06   0.54687321  0.018632237            0   0.52824097    1.7466687    2.2935419    2.4392487 
 7800000    1.2576702 1.7020268e-05   0.45103649  0.049141471            0   0.40189502    1.8393426    2.2903791    4.0332545 
 7805000    1.1892962 -6.8258159e-06   0.59932806  0.085886503            0   0.51344155    1.7393457    2.3386738    1.6397102 
 7810000    1.0821521 -4.2426434e-05   0.73166301  0.094057056            0   0.63760596    1.5826475    2.3143105   -2.0301563 
 7815000    1.0807533 -7.1499438e-05    0.7191825  0.035499321            0   0.68368318    1.5806017    2.2997842   -5.0217583 
 7820000    1.1798832 -0.00010824695   0.58809853  0.014638519            0   0.57346001    1.7255793    2.3136778   -8.7708103 
 7825000    1.2901639 -7.4027888e-05   0.44529563  0.004648873            0   0.44064676    1.8868647    2.3321604   -5.2482954 
 7830000    1.2237094 2.6673948e-05   0.49602238 0.0004396911            0   0.49558269     1.789675    2.2856974    5.0171096 
 7835000    1.1769142 1.3375094e-05   0.52404412 0.00017944563            0   0.52386468    1.7212371    2.2452812    3.6148908 
 7840000     1.177726 6.1654441e-05   0.50318328 0.00058069787            0   0.50260258    1.7224243    2.2256076    8.5390224 
 7845000    1.0271299 -2.0795905e-05    0.7057058  0.031131381            0   0.67457442    1.5021774    2.2078832   0.07838253 
 7850000    1.1524138 -0.00010717289   0.56176372  0.066701363            0   0.49506235    1.6854052    2.2471689   -8.7273349 
 7855000    1.1984438 -6.2788649e-05   0.49879204  0.020892559            0   0.47789948    1.7527241    2.2515161   -4.1780416 
 7860000    1.1598768 -2.8084148e-05   0.54992146  0.010325964            0    0.5395955    1.6963199    2.2462413  -0.62957545 
 7865000    1.2222694 -2.6173799e-05   0.48867544  0.015272199            0   0.47340324     1.787569    2.2762445  -0.40395249 
 7870000     1.153666 7.0461495e-05   0.55842138 0.0074853056            0   0.55093607    1.6872365    2.2456579    9.4609149 
 7875000     1.156266 4.3056768e-05   0.53459874 0.0010577113            0   0.53354103     1.691039    2.2256377    6.6346508 
 7880000    1.0805649 -5.5844185e-05   0.58731468 0.00053769838            0   0.58677699    1.5803261    2.1676408   -3.5508037 
 7885000    1.0361753 -1.682075e-05   0.66962266 0.0011745525            0    0.6684481    1.5154064     2.185029   0.46258419 
 7890000    1.1139047 3.5107798e-05   0.52816149 0.00088820813            0   0.52727329    1.6290857    2.1572472    5.7522857 
 7895000    1.2028552 6.0225557e-05   0.48289077 0.00043302091            0   0.48245775    1.7591758    2.2420665    8.4091635 
 7900000    1.1306892 6.9276614e-05    0.5756197 0.00068799343            0   0.57493171     1.653633    2.2292527     9.323178 
 7905000    1.2558934 -5.820211e-06   0.35349846  0.014386118            0   0.33911235    1.8367441    2.1902426     1.594253 
 7910000     1.112446 -0.00012185064   0.59150302  0.011463426            0   0.58003959    1.6269522    2.2184552   -10.259051 
 7915000    1.1576724 -0.00010755004   0.51025268  0.019247858            0   0.49100482    1.6930958    2.2033485   -8.8097759 
 7920000    1.0249739 -2.0077264e-05   0.70518524  0.056143983            0   0.64904126    1.4990244    2.2042096   0.14829776 
 7925000    1.1916898 2.1008252e-05     0.505075  0.024968196            0   0.48010681    1.7428463    2.2479213    4.3991663 
 7930000    1.0952183 -1.159475e-05   0.63826593  0.082313318            0   0.55595261    1.6017568    2.2400227    1.0527203 
 7935000    1.0910295 1.6058585e-05   0.66215927 0.0047078601            0   0.65745141    1.5956307    2.2577899     3.902189 
 7940000    1.2643428 6.6487317e-05   0.38365923 0.0075224393            0   0.37613679    1.8491013    2.2327605    9.0410618 
 7945000    1.0635823 -3.9896848e-06   0.67471159 0.0068840263            0   0.66782757    1.5554891    2.2302007     1.821657 
 7950000    1.1663055 3.5359976e-05   0.51431957 0.0019946575            0   0.51232492    1.7057218    2.2200414     5.840903 
 7955000    1.1164117 9.3923092e-05   0.52886789            0            0   0.52886789    1.6327521      2.16162    11.779345 
 7960000    1.1011145 -5.5316177e-05   0.54524427 0.00027665044            0   0.54496762      1.61038    2.1556243   -3.5087523 
 7965000    1.0330918 -6.9681315e-05    0.6247428            0            0    0.6247428    1.5108968    2.1356396    -4.999727 
 7970000    1.1990158 1.7891634e-05   0.41145784            0            0   0.41145784    1.7535607    2.1650185    3.9971219 
 7975000    1.0571454 -7.6249192e-05   0.59197396            0            0   0.59197396    1.5460752    2.1380491   -5.6698681 
 7980000    1.0144472 -0.00013651242   0.68388881            0            0   0.68388881     1.483629    2.1675178   -11.811354 
 7985000    1.0978421 -3.9219459e-07   0.58093093   0.01444812            0   0.56648281     1.605594     2.186525    2.1463643 
 7990000    1.0099906 8.1792142e-05   0.70987022  0.071696003            0   0.63817422    1.4771112    2.1869815    10.562497 
 7995000    1.0960005 -7.7467652e-05   0.57414938  0.015886431            0   0.55826295    1.6029007    2.1770501   -5.7556375 
 8000000    1.0628039 -0.00010076103   0.61832749 0.00050372415            0   0.61782377    1.5543507    2.1726782   -8.1452511 
 8005000   0.99573574 2.4799219e-06   0.65522341 0.0042506335            0   0.65097278    1.4562635    2.1114869    2.3654309 
 8010000    1.1699515 3.7344581e-05   0.38202272  0.010433445            0   0.37158927     1.711054    2.0930768    5.9171618 
 8015000    1.0085142 5.5154606e-05   0.64368103  0.057393993            0   0.58628703     1.474952     2.118633    7.7664646 
 8020000    1.0723308 -4.1329165e-05   0.55530824  0.029099503            0   0.52620874    1.5682838     2.123592   -2.1085145 
 8025000    1.1173203 -4.3730936e-05   0.51349308  0.012698508            0   0.50079457     1.634081    2.1475741   -2.3304737 
 8030000    1.1042952  5.45889e-05    0.5580377  0.029513538            0   0.52852416    1.6150317    2.1730694    7.7629727 
 8035000    1.1690766 1.5430399e-05   0.46268644  0.024581664            0   0.43810478    1.7097745    2.1724609    3.7525338 
 8040000     1.117814 -3.6211265e-06   0.52200626 0.0061531193            0   0.51585314     1.634803    2.1568093    1.7860059 
 8045000    1.0678574 -4.4801968e-05   0.60409668 5.065169e-05            0   0.60404602    1.5617415    2.1658382   -2.4218833 
 8050000    1.1102175 8.2350067e-05   0.53653175 0.0083292749            0   0.52820247    1.6236931    2.1602249    10.592872 
 8055000    1.1244613 4.8754756e-05   0.49324845  0.043403166            0   0.44984529    1.6445246    2.1377731    7.1302601 
 8060000    1.0493118 -0.00011492542   0.62988865 0.0050594402            0   0.62482921    1.5346186    2.1645072   -9.6038557 
 8065000    1.1512441 -1.0025593e-05   0.52957879            0            0   0.52957879    1.6836945    2.2132733    1.1866526 
 8070000    1.2202471 2.4403111e-05   0.44940538 0.0005624618            0   0.44884292    1.7846114    2.2340167    4.7328953 
 8075000    1.1704367 -7.7487157e-05   0.55136927 0.0035840002            0   0.54778527    1.7117637     2.263133   -5.6715519 
 8080000    1.2030133 3.7687185e-05   0.51220887  0.012382918            0   0.49982595     1.759407    2.2716159    6.1307837 
 8085000    1.1564114 8.5006971e-05   0.59059437  0.010949827            0   0.57964454    1.6912516     2.281846     10.98656 
 8090000    1.1164925 1.0154249e-05   0.67728318  0.040037469            0   0.63724571    1.6328703    2.3101535    3.3499485 
 8095000    1.2075233 -9.8190355e-06   0.49010706  0.040511382            0   0.44959568    1.7660028    2.2561098    1.2506406 
 8100000    1.1878425 -6.1740133e-05   0.53415719  0.010690853            0   0.52346634    1.7372197    2.2713769   -4.0508128 
 8105000    1.1450065 7.8061999e-05   0.58040902  0.014225935            0   0.56618309     1.674572    2.2549811     10.24853 
 8110000    1.0665755 7.3341364e-05   0.65169539 0.0032380663            0   0.64845732    1.5598667    2.2115621    9.7217177 
 8115000    1.1440407 -0.0001121826   0.56292371 0.0012231826            0   0.56170053    1.6731595    2.2360833   -9.2514147 
 8120000    1.2447468 8.688365e-05   0.41948321   0.01880987            0   0.40067334    1.8204422    2.2399254    11.136811 
 8125000    1.1996649 0.00012974219   0.49384581  0.019070658            0   0.47477515    1.7545099    2.2483557    15.533956 
 8130000    1.0513043 -5.7875332e-05   0.66420968 0.0049267476            0   0.65928294    1.5375326    2.2017422   -3.7246918 
 8135000    1.1901588 6.7187775e-05   0.43024731 0.0064873932            0   0.42375991    1.7406072    2.1708545    9.0508826 
 8140000    1.1352665 5.1396164e-07   0.48151835  0.055954813            0   0.42556354    1.6603272    2.1418456    2.1944752 
 8145000    1.0560633 -3.7264925e-05   0.57034599  0.056201629            0   0.51414436    1.5444926    2.1148386   -1.7010898 
 8150000    1.0890702 2.5879375e-05   0.49252669 0.0068067962            0   0.48571989    1.5927652    2.0852919    4.7353399 
 8155000    1.0609745 -0.00014050769   0.50509741   0.01274799            0   0.49234942    1.5516752    2.0567726   -12.331215 
 8160000    1.1053196 -7.1162122e-05   0.44748843 0.0037626265            0    0.4437258    1.6165299    2.0640183    -5.222983 
 8165000    1.1008744 -6.7047448e-06   0.45220027 0.0063304801            0   0.44586979    1.6100289    2.0622291    1.3756633 
 8170000    1.0316869 6.3703364e-05    0.5440371  0.010038621            0   0.53399847    1.5088421    2.0528792    8.5761037 
 8175000    1.1387716 -7.8503189e-07   0.36772967  0.014108849            0   0.35362082    1.6654534    2.0331831    1.9527958 
 8180000    1.1412957 -0.00010933414   0.36134724  0.020844145            0    0.3405031    1.6691449    2.0304922    -9.165324 
 8185000    1.1425631 1.7797113e-05   0.34670721 0.0065861777            0   0.34012103    1.6709985    2.0177057    3.8401301 
 8190000    1.0705414 6.7853637e-05   0.47031779 5.9194099e-07            0   0.47031719    1.5656668    2.0359845    8.9841969 
 8195000    1.1020926 3.1623786e-05    0.4355259            0            0    0.4355259    1.6118104    2.0473363    5.2856119 
 8200000    1.0431732 -2.1265591e-05   0.52034871            0            0   0.52034871    1.5256409    2.0459896  -0.13160691 
 8205000     1.196709 3.3571852e-05   0.28196133            0            0   0.28196133     1.750187    2.0321483    5.4699059 
 8210000    1.0252966 2.615387e-05   0.51131119 0.0001006467            0   0.51121054    1.4994963    2.0108074    4.6889637 
 8215000    1.0169355 -4.6144949e-05   0.48892219 0.0033283754            0   0.48559382    1.4872682    1.9761904   -2.7490524 
 8220000    1.0869874  3.44996e-05   0.36952132 0.0049263818            0   0.36459494     1.589719    1.9592403    5.4919994 
 8225000    1.0190418 -7.2854438e-05    0.4657448 0.0043114854            0   0.46143332    1.4903486    1.9560934    -5.504201 
 8230000   0.99895654 -1.5430071e-05   0.46743003 0.0010317747            0   0.46639825    1.4609739     1.928404   0.34836468 
 8235000    1.0598528 5.6869654e-05    0.3758486 4.2971586e-05            0   0.37580562    1.5500347    1.9258833    7.7493358 
 8240000   0.98316863 -8.8909441e-05   0.49318497 0.00040403021            0   0.49278093    1.4378841    1.9310691   -7.1732577 
 8245000    0.9453585 -0.00010599672   0.52435171 0.0071291181            0    0.5172226    1.3825868    1.9069385   -8.9471255 
 8250000   0.88616172 -5.7656144e-05   0.61472351  0.050763364            0   0.56396015    1.2960115     1.910735   -3.9932542 
 8255000   0.93872319 -6.2266875e-05   0.53274453   0.12117495            0   0.41156958    1.3728827    1.9056272   -4.4705008 
 8260000    0.9445917 2.3718433e-05   0.50607295  0.010276324            0   0.49579662    1.3814654    1.8875383    4.3163059 
 8265000   0.93140397 5.9144263e-05   0.51308247  0.036260666            0   0.47682181    1.3621783    1.8752608    7.9316333 
 8270000   0.92960795 -5.0802167e-05   0.51564078   0.07194968            0    0.4436911    1.3595516    1.8751924   -3.3269495 
 8275000    0.9436069 -2.6269802e-05   0.46166753 0.00021613922            0   0.46145139    1.3800251    1.8416926  -0.84833505 
 8280000    1.0096474 0.00010059263   0.37048634 9.0553635e-05            0   0.37039579    1.4766094    1.8470957    12.147781 
 8285000   0.90934317 6.0907377e-05   0.51941768 0.0036776993            0   0.51573998    1.3299144    1.8493321    8.0862474 
 8290000   0.76023488 8.0080497e-06    0.7209105  0.093642367            0   0.62726814    1.1118435     1.832754    2.6527783 
 8295000   0.88639691 7.6244637e-06    0.5524888  0.096095887            0   0.45639291    1.2963555    1.8488443    2.6295894 
 8300000   0.96135666 0.00011905702   0.44251045  0.033162201            0   0.40934825    1.4059841    1.8484946    14.039933 
 8305000   0.86576859 0.00011518988   0.54581378  0.034544794            0   0.51126899    1.2661866    1.8120003    13.607444 
 8310000   0.89117221 -2.2460659e-05   0.48970431 0.0022434442            0   0.48746086    1.3033394    1.7930437  -0.50692779 
 8315000   0.93088082 4.396865e-06   0.47163248            0            0   0.47163248    1.3614132    1.8330457    2.2832847 
 8320000   0.99756704 -9.8052842e-08   0.37365632            0            0   0.37365632    1.4589418    1.8325981    1.8225575 
 8325000   0.85832625 1.8284662e-05   0.56109963            0            0   0.56109963    1.2553021    1.8164018    3.6887512 
 8330000   0.89292025 8.4093922e-05   0.49178799            0            0   0.49178799    1.3058959    1.7976839    10.408901 
 8335000   0.94006836 -1.1399467e-05   0.46128691            0            0   0.46128691      1.37485    1.8361369   0.66883142 
 8340000    1.0299111 3.0570451e-05   0.31383258            0            0   0.31383258    1.5062449    1.8200775    4.9504918 
 8345000    1.0020032 1.4960177e-05   0.38205975            0            0   0.38205975    1.4654297    1.8474894    3.3794116 
 8350000   0.95044985 -7.9573223e-05   0.48569333 0.0007535956            0   0.48493973    1.3900329    1.8757262   -6.2725718 
 8355000   0.97003642 -4.0525606e-05   0.41434969 0.0052774935            0    0.4090722    1.4186783     1.833028   -2.3167941 
 8360000     1.052779 -5.0403201e-05   0.29455216  0.010723034            0   0.28382913    1.5396893    1.8342414   -3.3270464 
 8365000   0.88532833 8.0556183e-05   0.55521297  0.031029866            0   0.52418311    1.2947927    1.8500057    10.098959 
 8370000   0.83942881 7.7974303e-05   0.60257104  0.072222772            0   0.53034827    1.2276646    1.8302357    9.8148043 
 8375000    0.8492928 -1.4450192e-05   0.61031395  0.094246096            0   0.51606785    1.2420907    1.8524047   0.37270501 
 8380000    0.9915186 -4.7225836e-05   0.42773985 0.00035787805            0   0.42738197     1.450096    1.8778358   -2.9580898 
 8385000   0.98367264 -7.6114442e-06   0.41673037            0            0   0.41673037    1.4386212    1.8553516    1.0759397 
 8390000   0.97930269 5.0697159e-05   0.46530524            0            0   0.46530524    1.4322302    1.8975354    7.0889245 
 8395000   0.90273318 4.3621376e-05    0.5862829 0.0041403312            0   0.58214257    1.3202473    1.9065302    6.3733591 
 8400000   0.86612871 -3.48967e-05    0.6483711  0.067919449            0   0.58045165    1.2667132    1.9150843   -1.6583378 
 8405000    1.0035758 -3.3704761e-05   0.44814812  0.014381141            0   0.43376698    1.4677296    1.9158777   -1.5354898 
 8410000   0.94133264 1.8360609e-05   0.55276839 0.0058934233            0   0.54687497     1.376699    1.9294674    3.8095937 
 8415000   0.95190673 8.2917439e-06   0.53241262 0.00094190195            0   0.53147072    1.3921636    1.9245762    2.7736508 
 8420000    1.0174694 -3.4691151e-06   0.44221141            0            0   0.44221141     1.488049    1.9302604     1.575023 
 8425000   0.94641213 -5.2728324e-05   0.54090151            0            0   0.54090151    1.3841277    1.9250292   -3.4743511 
 8430000   0.88265796 -8.939784e-05   0.62393512            0            0   0.62393512    1.2908873    1.9148224   -7.2395165 
 8435000   0.94880056 -0.00012016598   0.49084349   0.01534805            0   0.47549544    1.3876208    1.8784643   -10.426532 
 8440000   0.89949589 -9.9121998e-05   0.61829784  0.065230738            0    0.5530671    1.3155127    1.9338106    -8.216282 
 8445000   0.97442392 -2.013333e-05   0.52225661  0.009421514            0    0.5128351     1.425095    1.9473516  -0.11430139 
 8450000   0.97662768 3.3232778e-05   0.52619932  0.053015516            0    0.4731838     1.428318    1.9545173    5.3575538 
 8455000   0.97533282 -1.7895672e-07   0.52782278  0.055767823            0   0.47205495    1.4264243     1.954247    1.9359219 
 8460000    1.0450746 -5.511064e-06   0.43811385  0.011559504            0   0.42655435    1.5284216    1.9665354    1.4022025 
 8465000    1.0412347 4.9604525e-05   0.44147101 0.0020820306            0   0.43938898    1.5228058    1.9642768    7.0437802 
 8470000    1.0545712 4.3800442e-05   0.39968907 0.0028466305            0   0.39684244    1.5423104    1.9419994    6.4271647 
 8475000    1.0268853 1.1465669e-05   0.46279985  0.004907344            0   0.45789251    1.5018198    1.9646196    3.1387041 
 8480000   0.95017563 3.3686534e-05   0.60633685 0.0044088523            0     0.601928    1.3896319    1.9959687    5.4454698 
 8485000    1.0546712 1.7784275e-05   0.43475745 0.0022283629            0   0.43252909    1.5424567    1.9772141    3.7983239 
 8490000   0.94961145 -1.9010212e-05   0.61244309 0.0025595295            0   0.60988356    1.3888067    2.0012498  0.054604107 
 8495000    1.0286934 -1.5816666e-06   0.45470121  0.011530006            0   0.44317121     1.504464    1.9591653    1.7972026 
 8500000   0.94082294 -7.6576843e-05   0.56252741  0.022660877            0   0.53986653    1.3759535     1.938481   -5.9029878 
 8505000   0.85972587 -6.349547e-05    0.6667543  0.028537409            0   0.63821689    1.2573491    1.9241034   -4.5778328 
 8510000    1.0138145 7.8841121e-05   0.43885884  0.010981118            0   0.42787772    1.4827038    1.9215626    9.9948934 
 8515000    1.0335165 9.7902498e-05   0.43211796 0.00034925483            0    0.4317687    1.5115179    1.9436358    11.968852 
 8520000    1.0211836 1.9758473e-05   0.43981801 3.2670204e-07            0   0.43981769     1.493481     1.933299    3.9565667 
 8525000   0.96449013 1.7622478e-05   0.56972564            0            0   0.56972564    1.4105668    1.9802925    3.7848342 
 8530000    1.0173692 9.6931219e-05   0.48776227            0            0   0.48776227    1.4879025    1.9756648    11.901422 
 8535000   0.99139245 2.6003687e-05   0.57766413  0.002969372            0   0.57469475    1.4499115    2.0275756    4.6903531 
 8540000    1.0296132 -6.8699624e-06    0.5174908  0.023032005            0   0.49445879    1.5058093    2.0233001     1.319816 
 8545000   0.99108976 4.8136885e-05   0.55422144  0.018724263            0   0.53549718    1.4494688    2.0036902    6.9329072 
 8550000   0.90335315 2.9583444e-05   0.70080346  0.046159595            0   0.65464386     1.321154    2.0219574    5.0513021 
 8555000    1.0269297 -9.0672251e-06    0.4991313  0.012395966            0   0.48673534    1.5018847     2.001016    1.0725321 
 8560000    1.0725221 8.0119072e-06   0.44516971   0.01541456            0   0.42975515    1.5685636    2.0137333    2.8341526 
 8565000   0.93416897 2.3398114e-06   0.67783736  0.010678918            0   0.66715845    1.3662221    2.0440595    2.2836562 
 8570000     1.109924 -2.3105624e-05   0.45249813 0.00050003664            0   0.45199809    1.6232639     2.075762  -0.29025387 
 8575000   0.95648006 -6.0765003e-05   0.66556731            0            0   0.66556731    1.3988521    2.0644194   -4.1579169 
 8580000    1.0261019 -7.2283451e-05   0.56689925 0.00064634008            0   0.56625291    1.5006741    2.0675733    -5.334252 
 8585000        1.066 3.3141663e-05    0.4806722 0.0005495945            0   0.48012261     1.559025    2.0396972    5.4334035 
 8590000    1.0204652 0.00015517874    0.5349483 1.6831133e-05            0   0.53493147    1.4924304    2.0273787    17.917682 
 8595000    1.0013678 0.00011847949   0.53955056 4.2060856e-05            0    0.5395085    1.4645004    2.0040509    14.136351 
 8600000    1.0087336 -5.5030806e-05   0.48948665 0.00052865877            0   0.48895799    1.4752729    1.9647596    -3.670395 
 8605000    1.0234637 -8.0580002e-05    0.5200058 4.2208765e-05            0   0.51996359    1.4968157    2.0168215   -6.2345707 
 8610000    1.0522899 2.5855266e-05   0.51825218            0            0   0.51825218     1.538974    2.0572262    4.7048054 
 8615000    1.0378815 4.4667521e-05   0.51687539            0            0   0.51687539    1.5179017    2.0347771    6.6087313 
 8620000    1.0470883 -2.560559e-05   0.50316751 0.0038327359            0   0.49933477    1.5313667    2.0345342   -0.5874782 
 8625000    1.1182691 -2.4681257e-05   0.44104325   0.01461827            0   0.42642498    1.6354686    2.0765118  -0.45084891 
 8630000    1.0416228 9.4743027e-05   0.53603084 0.0066511964            0   0.52937965    1.5233733    2.0594042     11.76109 
 8635000    1.0571031 -1.2828618e-05   0.53399056  0.015558425            0   0.51843213    1.5460133    2.0800039   0.76635339 
 8640000    1.0779359 -4.562454e-05   0.52053872  0.015926922            0    0.5046118    1.5764812    2.0970199   -2.5749329 
 8645000    1.0899174 -3.3738342e-05   0.55553589 0.0020820633            0   0.55345383    1.5940042    2.1495401   -1.3052661 
 8650000    1.1075419 -7.4927178e-05   0.51649455            0            0   0.51649455      1.61978    2.1362746   -5.5362685 
 8655000    1.0599419 8.978567e-05   0.61666889  0.001528642            0   0.61514025     1.550165    2.1668339    11.360887 
 8660000    1.1655626 2.401333e-05   0.44407367 0.0051332004            0   0.43894047    1.7046353    2.1487089    4.6076739 
 8665000    1.0636834 -8.6970344e-05   0.60202582    0.0094899            0   0.59253592     1.555637    2.1576628   -6.7481005 
 8670000    1.1012628 -2.0233968e-05   0.52137486 0.0062090668            0   0.51516579    1.6105968    2.1319717  0.060013342 
 8675000   0.99702302 6.3211635e-06   0.64621565  0.066839604            0   0.57937604    1.4581462    2.1043618    2.7516489 
 8680000    1.0920096 1.0745933e-05   0.52315759  0.014211866            0   0.50894572     1.597064    2.1202216    3.2206052 
 8685000    1.0789742 5.6675853e-05   0.55705752            0            0   0.55705752    1.5779998    2.1350573    7.9386647 
 8690000    1.1215755 9.8296675e-05   0.47513204 0.0016550178            0   0.47347702    1.6403041    2.1154362    12.181016 
 8695000    1.0585473 3.774607e-05   0.58052302  0.034203126            0    0.5463199    1.5481255    2.1286485    5.9938461 
 8700000   0.97653447 -8.3460723e-05   0.68957889  0.051706149            0   0.63787274    1.4281817    2.1177605   -6.4286175 
 8705000     1.030825 -9.4680724e-05   0.59498053 0.0074797437            0   0.58750078    1.5075816    2.1025621    -7.592744 
 8710000    1.0922847 8.4187545e-06   0.47518557 0.0033571701            0    0.4718284    1.5974664     2.072652    2.9347325 
 8715000    1.0846636 9.1591714e-05   0.48663142 0.0064562831            0   0.48017514    1.5863205    2.0729519    11.451943 
 8720000    1.0135407 0.00010069892   0.59306189 0.0040142897            0    0.5890476    1.4823033    2.0753652    12.386935 
 8725000    1.1165937 0.00010224227    0.4616843 0.0046905129            0   0.45699379    1.6330183    2.0947026    12.564311 
 8730000     1.116935 -1.52614e-05   0.43186301  0.014269481            0   0.41759353    1.6335175    2.0653805   0.50261309 
 8735000    1.0832196 -9.0326864e-05   0.50183679  0.010645801            0   0.49119099    1.5842087    2.0860455   -7.1634253 
 8740000    1.1021814 -4.4935916e-05   0.46264019 0.0027216356            0   0.45991855    1.6119403    2.0745805   -2.5268573 
 8745000    1.0138037 -5.6697441e-05   0.58116198  0.024942409            0   0.55621957     1.482688      2.06385    -3.741968 
 8750000    1.0605904 -3.7335026e-05   0.52909395  0.048829102            0   0.48026485    1.5511135    2.0802075   -1.7428992 
 8755000     1.017572 2.3810517e-05   0.57810668 0.0095854638            0   0.56852122    1.4881991    2.0663057    4.5045027 
 8760000    1.1010758 -2.3563094e-05   0.45940484 0.0008672264            0   0.45853761    1.6103233    2.0697281  -0.34313265 
 8765000    1.1139506 -2.0514949e-05   0.45169499  0.010476478            0   0.44121852    1.6291528    2.0808478 -0.019882968 
 8770000    1.0527379 3.7418639e-05   0.51588326  0.012582733            0   0.50330052    1.5396292    2.0555125    5.8871811 
 8775000    1.0307312 2.9149818e-05   0.52985812 0.0033822258            0   0.52647589    1.5074443    2.0373025    5.0222438 
 8780000     1.018146 5.0155851e-05   0.50147331 0.0021594502            0   0.49931386    1.4890385    1.9905118     7.126471 
 8785000    1.0789128 -2.6852172e-05   0.44219468 0.0018564238            0   0.44033826    1.5779099    2.0201046  -0.72955784 
 8790000    1.0786049 -9.4862483e-05   0.51945616 0.00059833714            0   0.51885782    1.5774597    2.0969159   -7.6170024 
 8795000    0.9596432 -3.6366172e-05   0.65995736            0            0   0.65995736    1.4034782    2.0634355   -1.6604605 
 8800000    1.0778043 1.6202819e-05   0.52436902 0.00017434624            0   0.52419468    1.5762887    2.1006578    3.7598264 
 8805000    1.0324087 3.5614839e-06   0.55521371 0.00070545641            0   0.55450825    1.5098977    2.0651114    2.4298073 
 8810000    1.1376562 1.8681242e-05   0.40606685  0.001574466            0   0.40449239    1.6638222     2.069889    3.9828482 
 8815000      1.08186 3.9717967e-05   0.50311214  0.025616618            0   0.47749552    1.5822203    2.0853324    6.1524522 
 8820000    1.2119626 2.9363647e-05   0.35050877  0.034839236            0   0.31566953    1.7724954    2.1230041    5.1298415 
 8825000    1.0716019 -2.095252e-05    0.5783549 0.0031856572            0   0.57516925    1.5672177    2.1455727 3.4616948e-05 
 8830000    1.0702495 -7.2546263e-06   0.54845978 2.5960726e-05            0   0.54843382    1.5652398    2.1136996    1.3708259 
 8835000    1.0271088 3.5773328e-05    0.5903124 2.3677041e-06            0   0.59031003    1.5021467    2.0924591    5.7556479 
 8840000    1.0409596 5.0478918e-05   0.56474296 0.0067500573            0    0.5579929    1.5224034    2.0871464    7.2561876 
 8845000   0.99358097 6.327687e-05    0.6467228  0.033645049            0   0.61307775    1.4531122     2.099835    8.5793864 
 8850000   0.95919676 7.7290572e-05   0.64307132   0.04928278            0   0.59378854    1.4028253    2.0458966    9.9604511 
 8855000   0.96742293 8.9016106e-05   0.61471588  0.015702453            0   0.59901343     1.414856    2.0295719    11.144821 
 8860000     1.137641 5.9145272e-05   0.38577302 0.0075685782            0   0.37820444       1.6638     2.049573    8.1060489 
 8865000    1.0870277 -3.4862608e-05   0.52395777  0.014883045            0   0.50907472     1.589778    2.1137357   -1.4561953 
 8870000   0.93283819 -8.4531797e-05   0.74456415  0.037312271            0   0.70725188    1.3642758      2.10884    -6.547216 
 8875000   0.97496438 -7.4632983e-05   0.61913476  0.022593841            0   0.59654091    1.4258854    2.0450202   -5.5973972 
 8880000    1.0174961 -6.7548257e-07   0.49666699 0.00043105207            0   0.49623594    1.4880881    1.9847551    1.9155856 
 8885000    1.0618171 9.0861216e-05   0.47750836 0.0067754509            0   0.47073291    1.5529075    2.0304158    11.334604 
 8890000   0.95446982 4.3011378e-05   0.59972397  0.018499036            0   0.58122493    1.3959121    1.9956361    6.4000012 
 8895000   0.91240768 1.8150222e-05   0.67408734  0.092087038            0    0.5820003    1.3343962    2.0084836    3.8670663 
 8900000   0.97070297 2.5385803e-05   0.61845764  0.059873434            0   0.55858421    1.4196531    2.0381107    4.6376169 
 8905000    1.0761281 4.4350789e-05   0.45959701  0.014625825            0   0.44497118    1.5738374    2.0334344    6.5749551 
 8910000    1.0294759 -1.9674074e-06   0.51635018 0.0012568877            0   0.51509329    1.5056085    2.0219587    1.8204962 
 8915000     1.079153 -4.1976528e-05   0.46985115 0.0022128283            0   0.46763832    1.5782613    2.0481124    -2.250284 
 8920000   0.93041068 -7.7276665e-05   0.64454355  0.018104279            0   0.62643927    1.3607256    2.0052692   -5.9078614 
 8925000    1.0663297 -1.7953128e-05   0.47189743  0.043791334            0   0.42810609    1.5595072    2.0314046   0.19300428 
 8930000   0.99508044 1.9580801e-05   0.56504254   0.01938103            0   0.54566151    1.4553051    2.0203477    4.0254217 
 8935000    1.0106322 -5.7181608e-05   0.54331279 0.0029106695            0   0.54040212    1.4780496    2.0213624   -3.8340343 
 8940000    1.0123358 -5.4525088e-05   0.55640166 0.0038624223            0   0.55253924    1.4805411    2.0369428   -3.5464263 
 8945000    1.0281107 -8.0528499e-05   0.49972919  0.019663992            0    0.4800652    1.5036119    2.0033411   -6.2427772 
 8950000    1.0603845 -3.2750977e-05    0.4160849   0.02152291            0   0.39456199    1.5508124    1.9668973   -1.3868028 
 8955000   0.93959586 2.6685215e-05   0.60104365  0.024277642            0   0.57676601    1.3741589    1.9752026    4.7077686 
 8960000   0.99430102 -4.047362e-05    0.4847615  0.020990879            0   0.46377062    1.4541652    1.9389267    -2.205572 
 8965000    0.9825536 2.8148674e-05   0.49892931  0.056754429            0   0.44217489    1.4369846     1.935914    4.8183382 
 8970000   0.93967956 -1.7798771e-06   0.54504238  0.013406588            0   0.53163579    1.3742814    1.9193237    1.7370643 
 8975000   0.99184807 -0.00010006802    0.4760942            0            0    0.4760942    1.4505778     1.926672   -8.3202936 
 8980000    0.9466899 -6.552276e-05   0.56433192            0            0   0.56433192     1.384534    1.9488659   -4.7606647 
 8985000   0.86355867 -2.0949145e-05   0.67251062            0            0   0.67251062    1.2629546    1.9354652  -0.20972724 
 8990000    0.9881973 1.5559466e-05   0.47699465 5.9754065e-05            0    0.4769349    1.4452386    1.9222332    3.5155226 
 8995000   0.89258277 -3.545162e-06   0.62676678 0.0030631377            0   0.62370365    1.3054023    1.9321691    1.5691445 
 9000000   0.94705657 1.6385314e-05   0.52931616  0.024166089            0   0.50515007    1.3850702    1.9143864    3.5922426 
 9005000   0.97736845 -4.0576197e-05   0.43196508  0.090996546            0   0.34096853    1.4294014    1.8613664   -2.2936361 
 9010000   0.96545925 2.1825477e-05   0.48469421  0.036149063            0   0.44854514    1.4119842    1.8966784    4.1316072 
 9015000    0.9507602 4.9579593e-05   0.44998917  0.013678796            0   0.43631037    1.3904868     1.840476    6.9174263 
 9020000   0.80555275 -4.8691111e-05   0.63380862 0.0080948762            0   0.62571375    1.1781209    1.8119295   -3.1740402 
 9025000   0.88019044 1.2798293e-05    0.5448021 0.00013246948            0   0.54466963    1.2872785    1.8320806    3.1426258 
 9030000   0.83324848 9.0145521e-06   0.63527706 0.0024017265            0   0.63287533    1.2186259     1.853903    2.7769931 
 9035000    0.8621541 -3.0016757e-05   0.59853038  0.039098376            0     0.559432    1.2609004    1.8594307   -1.2142852 
 9040000   0.97324843 -2.4800704e-05   0.43063934  0.018802571            0   0.41183677    1.4233758    1.8540152  -0.68557687 
 9045000   0.95844736 7.0627676e-05   0.49897338 0.0028945409            0   0.49607884    1.4017293    1.9007026    9.1329767 
 9050000   0.85320952 9.2216911e-05   0.70598366 0.0012011348            0   0.70478253    1.2478189    1.9538026    11.396814 
 9055000   0.94726665 -1.2764626e-05   0.55750821  0.031120995            0   0.52638722    1.3853775    1.9428857   0.63578797 
 9060000   0.87402049 -6.7721366e-05   0.59944328  0.045997298            0   0.55344599     1.278255    1.8776983   -5.0569697 
 9065000   0.92427139 -3.3270298e-05     0.529704 0.0041714659            0   0.52553254    1.3517469    1.8814509   -1.5254276 
 9070000   0.90817315 4.181972e-05   0.56845058  0.012119763            0   0.55633082    1.3282032    1.8966538    6.1789931 
 9075000   0.96869215 3.669798e-05   0.47360336  0.018772377            0   0.45483098    1.4167123    1.8903156    5.6481888 
 9080000   0.91810977 4.6822489e-06   0.51363503  0.032013178            0   0.48162185    1.3427355    1.8563706    2.3358328 
 9085000   0.71930535 -2.1086652e-05   0.78221344  0.041036198            0   0.74117725    1.0519841    1.8341975  -0.32507563 
 9090000   0.94118798 -5.3990215e-06   0.44686447  0.026596488            0   0.42026799    1.3764874    1.8233519    1.2704921 
 9095000   0.73598991 8.3394146e-05   0.73422637  0.016746572            0    0.7174798    1.0763852    1.8106116    10.350172 
 9100000   0.93485988 8.2828954e-06   0.46152477 0.0069601964            0   0.45456458    1.3672326    1.8287574    2.6769258 
 9105000   0.93718916 -2.7695679e-05   0.48090165  0.019685755            0   0.46121589    1.3706391    1.8515408  -0.98449675 
 9110000   0.83721811 3.9151895e-05   0.62726216  0.069901643            0   0.55736052    1.2244315    1.8516936    5.8608476 
 9115000    0.9672136 8.0095751e-06   0.47016433  0.018556951            0   0.45160738    1.4145499    1.8847142    2.7048947 
 9120000    0.9682127 -4.3228512e-05   0.46500104  0.013830655            0   0.45117038    1.4160111    1.8810121   -2.5455875 
 9125000   0.93843634 2.6630707e-05   0.52363329  0.043926785            0    0.4797065    1.3724632    1.8960964    4.6230808 
 9130000   0.94436528 5.7072306e-05   0.55039251  0.029301205            0    0.5210913    1.3811342    1.9315267    7.7757308 
 9135000   0.86566097 -1.9396164e-05   0.68776975  0.009664521            0   0.67810523    1.2660292    1.9537989 -0.032368283 
 9140000    0.9678979 -6.0176385e-05   0.53116286  0.006364714            0   0.52479814    1.4155507    1.9467135   -4.2153483 
 9145000   0.98280454 5.1046617e-05   0.53648876 0.00050349792            0   0.53598526    1.4373516    1.9738404     7.201014 
 9150000   0.95819143 2.7116059e-05   0.55520396 0.00014302307            0   0.55506093     1.401355    1.9565589    4.7332434 
 9155000    1.0710983 9.3194078e-06   0.39345551 0.0095020076            0   0.38395351    1.5664812    1.9599367    2.9142441 
 9160000   0.90449486 6.1316136e-05   0.63133465  0.046372166            0   0.58496248    1.3228237    1.9541584    8.2329307 
 9165000    0.9912716 -8.2528324e-07   0.50393693  0.021815101            0   0.48212183    1.4497347    1.9536716    1.8691626 
 9170000    1.0050759 -1.4526613e-06   0.48377147 0.0011906817            0   0.48258079    1.4699235     1.953695    1.8049425 
 9175000   0.90314569 7.126973e-06   0.63042225 0.0084506557            0    0.6219716    1.3208506    1.9512728    2.6810749 
 9180000   0.91462511 3.4510963e-06   0.62026382  0.045425451            0   0.57483837    1.3376392    1.9579031    2.3112953 
 9185000   0.90605998 2.1130187e-05   0.64030938   0.03964097            0   0.60066841    1.3251127    1.9654221    4.1291533 
 9190000   0.89535826 6.2640699e-06   0.65077421  0.018835095            0   0.63193912    1.3094615    1.9602357    2.6016764 
 9195000   0.92948813 2.8206986e-05   0.60130568  0.056611497            0   0.54469418    1.3593764    1.9606821    4.8490774 
 9200000   0.97982451 1.0859064e-05   0.53125814  0.030672078            0   0.50058606    1.4329934    1.9642515    3.0762196 
 9205000   0.89873893 -6.5407452e-05   0.62820473 0.0060724747            0   0.62213225    1.3144057    1.9426104   -4.7551126 
 9210000    1.0070482 2.9862511e-05   0.46144709 0.0060883793            0   0.45535871     1.472808    1.9342551    4.9921762 
 9215000   0.92964535 8.3611308e-06   0.55681746  0.026288863            0    0.5305286    1.3596063    1.9164238    2.7726036 
 9220000    0.9088157 2.0126295e-05   0.56639359  0.017743556            0   0.54865003     1.329143    1.8955365    3.9564691 
 9225000   0.93082123 0.00011295921   0.56672214 0.0092039773            0   0.55751816     1.361326    1.9280482    13.495071 
 9230000     1.000775 6.4695104e-05   0.49746036  0.023943119            0   0.47351724    1.4636335    1.9610939    8.5858725 
 9235000   0.92225371 4.4240922e-05    0.5556351   0.03397248            0   0.52166262    1.3487961    1.9044312    6.4347015 
 9240000   0.90988077 -5.6675967e-05    0.6014439   0.02856684            0   0.57287706    1.3307006    1.9321445   -3.8714745 
 9245000   0.93206996 -0.0001151834    0.5855655  0.059325917            0   0.52623958    1.3631523    1.9487178   -9.8460619 
 9250000    1.0396016 3.8785125e-05   0.43866061  0.078286377            0   0.36037423    1.5204174     1.959078    5.9306748 
 9255000   0.93028892 0.00013467316   0.60463525  0.029038214            0   0.57559704    1.3605476    1.9651828    15.755714 
 9260000   0.88202458 0.00011724902   0.66509238 0.0061618626            0   0.65893052     1.289961    1.9550533    13.961353 
 9265000    1.0464643 -1.247416e-05    0.4280745 1.0625003e-06            0   0.42807344    1.5304541    1.9585286   0.68117462 
 9270000    1.0420157 1.364607e-05   0.43491492            0            0   0.43491492    1.5239479    1.9588628    3.3562204 
 9275000    1.0020572 5.5720297e-05   0.47947379            0            0   0.47947379    1.4655086    1.9449824    7.6507408 
 9280000   0.94685499 3.632287e-05   0.55886253            0            0   0.55886253    1.3847754     1.943638    5.6630999 
 9285000    0.9892083 2.6615598e-05    0.5532764   0.04560206            0   0.50767434    1.4467171    1.9999935    4.7254307 
 9290000   0.97503286 -1.4186865e-06   0.56833797  0.065064836            0   0.50327313    1.4259856    1.9943235      1.84905 
 9295000    1.0860088 4.1547117e-05   0.43944956  0.027320215            0   0.41212934    1.5882879    2.0277375    6.2821622 
 9300000    1.0088421 -2.9906237e-05    0.5387377  0.025131589            0   0.51360611    1.4754315    2.0141692   -1.0482295 
 9305000   0.94819077 -5.8794375e-05   0.59989855   0.11069055            0   0.48920799     1.386729    1.9866276   -4.0339164 
 9310000    1.0428466 3.7055299e-05   0.44026113  0.044362233            0    0.3958989    1.5251631    1.9654242    5.7598868 
 9315000    1.0084816 4.2479073e-05   0.43384847 0.0017846653            0    0.4320638    1.4749044    1.9087529    6.2586099 
 9320000    1.0188616 6.878622e-05   0.40041156 0.0038679493            0   0.39654361    1.4900851    1.8904966    8.9342055 
 9325000    1.0245155 3.1690225e-05   0.34063266  0.017518544            0   0.32311412    1.4983539    1.8389866    5.0840656 
 9330000   0.96120621 7.101834e-06   0.46538232 0.0073205836            0   0.45806173    1.4057641    1.8711464    2.5983742 
 9335000   0.99224079 4.4056633e-05   0.44995313 0.0041377877            0   0.44581534    1.4511522    1.9011053    6.4125045 
 9340000    0.9748356 9.1867592e-05   0.45886685  0.041611062            0   0.41725579    1.4256971    1.8845639    11.291805 
 9345000   0.90884082 3.0794876e-05    0.5417091  0.077887892            0    0.4638212    1.3291797    1.8708888    5.0242841 
 9350000   0.87865742 4.1515635e-05   0.55798354  0.051986272            0   0.50599727    1.2850365      1.84302     6.094221 
 9355000   0.93846613 4.6094029e-05   0.42921988 0.0039581533            0   0.42526173    1.3725067    1.8017266    6.5217552 
 9360000    0.8391149 -9.5529395e-06   0.60273502            0            0   0.60273502    1.2272055    1.8299406   0.85171955 
 9365000   0.90497456 5.2711903e-05   0.52979265 0.00023423729            0   0.52955841    1.3235253    1.8533179    7.2510168 
 9370000   0.95250117 7.2417677e-05   0.46027992  0.014544133            0   0.44573579     1.393033    1.8533129     9.268883 
 9375000   0.90265087 1.0185356e-05   0.51400846  0.035973947            0   0.47803451    1.3201269    1.8341354    2.8771159 
 9380000   0.83482268 -1.2552716e-06   0.58203002  0.008702782            0   0.57332723    1.2209282    1.8029582    1.6744184 
 9385000   0.91351386 8.5127464e-06   0.48164026            0            0   0.48164026     1.336014    1.8176543    2.6893595 
 9390000   0.90728179 8.2078845e-05   0.48983789            0            0   0.48983789    1.3268996    1.8167375    10.221611 
 9395000    0.8994035 4.9924894e-05   0.53217487            0            0   0.53217487    1.3153776    1.8475525    6.9598616 
 9400000   0.93359781 -7.622335e-05   0.53258463 1.6269121e-05            0   0.53256836    1.3653868    1.8979714   -5.9072996 
 9405000     1.009206 1.0209324e-05   0.41761906 0.0022141319            0   0.41540493    1.4759638    1.8935829    2.9390176 
 9410000   0.97038786 -5.9357824e-07   0.52132378  0.015075633            0   0.50624815    1.4191923     1.940516    1.8797336 
 9415000   0.97942981 1.2625235e-05   0.54140226  0.015880637            0   0.52552163    1.4324161    1.9738184    3.2666424 
 9420000   0.97177831 -7.2533478e-06   0.57733548 0.00045064891            0   0.57688483    1.4212258    1.9985613    1.2558184 
 9425000     1.094561 -5.5605332e-05   0.36388018  0.002300726            0   0.36157945    1.6007955    1.9646757   -3.7293103 
 9430000   0.90935969 -2.2305297e-05   0.65749827 0.0092114367            0   0.64828684    1.3299385    1.9874368   -0.2966256 
 9435000   0.99340876 -7.8691415e-06    0.5498803  0.015533117            0   0.53434718    1.4528603    2.0027406    1.1969405 
 9440000     1.015613 1.1262636e-05   0.53891685 0.0027418468            0     0.536175     1.485334    2.0242509    3.1775448 
 9445000   0.95831815 2.3318984e-05   0.60356071  0.011997804            0   0.59156291    1.4015403     2.005101     4.392965 
 9450000    1.0098896 -5.7988998e-05   0.54429307  0.030336601            0   0.51395647    1.4769636    2.0212566   -3.9168168 
 9455000    1.0203702 -5.6313319e-05   0.51907599  0.038021786            0    0.4810542    1.4922914    2.0113674   -3.7551164 
 9460000   0.98655542 -3.5775644e-05   0.55093911  0.012397719            0   0.53854139    1.4428373    1.9937764   -1.6696495 
 9465000    1.0633877 -3.3749556e-05   0.44871297  0.035317525            0   0.41339545    1.5552045    2.0039175    -1.452037 
 9470000   0.94131082 -1.5347174e-05    0.6224706  0.007750554            0   0.61472005    1.3766671    1.9991377   0.42758702 
 9475000   0.99402593 4.3835542e-05   0.57429131  0.010023415            0    0.5642679    1.4537629    2.0280542    6.5168138 
 9480000   0.97967087 9.4315216e-05   0.62528312  0.035571011            0   0.58971211    1.4327686    2.0580518     11.71593 
 9485000    1.1460769 5.2760766e-05   0.39362584  0.035119113            0   0.35850672    1.6761374    2.0697633    7.4724658 
 9490000   0.99696685 2.1707187e-05   0.63006457  0.013183263            0   0.61688131     1.458064    2.0881286    4.3109446 
 9495000    1.1108726 -3.994859e-06   0.48081202  0.041056178            0   0.43975584    1.6246511    2.1054632    1.6963896 
 9500000   0.86514921 -5.5418075e-05   0.79135226  0.055737167            0    0.7356151    1.2652807     2.056633   -3.6181778 
 9505000   0.89183108 -9.3527018e-05   0.73565432   0.05462941            0   0.68102491     1.304303    2.0399573   -7.5372094 
 9510000    1.0639121 -3.4353849e-05    0.5014593  0.001950499            0    0.4995088    1.5559714    2.0574307   -1.4604035 
 9515000    1.0334447 9.8943046e-05   0.58429572            0            0   0.58429572    1.5114129    2.0957086    12.227477 
 9520000    1.0660121 7.1385696e-05   0.51277646            0            0   0.51277646    1.5590427    2.0718192    9.3817145 
 9525000    1.0545921 -7.1576709e-05   0.50992668 8.1358194e-05            0   0.50984532    1.5423409    2.0522676   -5.2771874 
 9530000    1.0750465 -5.9584477e-05   0.45460169 0.0023154324            0   0.45228626    1.5722555    2.0268572   -4.0745933 
 9535000    1.0331614 -7.7066117e-06    0.5153469 0.0041256267            0   0.51122127    1.5109985    2.0263454    1.2371884 
 9540000    1.0658227 -5.805781e-05   0.46713985 0.0050667504            0    0.4620731    1.5587657    2.0259055   -3.9192142 
 9545000    1.0958577 -5.6942115e-05   0.46638586  0.074293806            0   0.39209205    1.6026919    2.0690778   -3.7617948 
 9550000     1.047393 -8.0108039e-06   0.52226225  0.062573776            0   0.45968848    1.5318123    2.0540745    1.2337682 
 9555000     1.032646 1.6026186e-05   0.52007701  0.033008756            0   0.48706825    1.5102448    2.0303218    3.6714032 
 9560000   0.98614298 -3.6402391e-05      0.65339  0.010403996            0     0.642986    1.4422341    2.0956241   -1.6319807 
 9565000    1.0767401 -4.1056001e-05   0.48270828  0.013823331            0   0.46888495    1.5747324    2.0574407   -2.1466938 
 9570000    1.0953566 -2.0417474e-05   0.47372512  0.013072825            0    0.4606523    1.6019591    2.0756842 -0.015065106 
 9575000   0.94905873 -1.1662823e-05   0.68632496 0.0059952515            0   0.68032971    1.3879984    2.0743234   0.88005024 
 9580000    1.1120264 3.7922973e-05   0.44569197  0.031029793            0   0.41466218    1.6263385    2.0720305    5.9553429 
 9585000    1.0618474 -1.3288534e-05   0.52693831  0.026357566            0   0.50058075    1.5529519    2.0798902   0.71914431 
 9590000    1.0117243 -4.3087569e-05    0.5499428  0.044720954            0   0.50522185    1.4796468    2.0295896   -2.3825775 
 9595000    1.0337618 2.765708e-06   0.55501828  0.025685469            0   0.52933281    1.5118766    2.0668949    2.3501034 
 9600000    1.0075813 5.5984593e-05    0.5828882  0.010922949            0   0.57196525    1.4735877    2.0564759    7.7892982 
 9605000    1.0606736 2.7462176e-05   0.54093978 0.0084201579            0   0.53251962    1.5512351    2.0921749    4.9043018 
 9610000    1.0857557 -4.4932377e-05   0.50721818 0.00042270315            0   0.50679548    1.5879177    2.0951359   -2.5059394 
 9615000    1.0496316 -5.4416332e-05   0.55941426 0.0039386366            0   0.55547562    1.5350863    2.0945005   -3.4777319 
 9620000     1.033361 -8.0921626e-05   0.62420242  0.048955588            0   0.57524683    1.5112905    2.1354929   -6.1508816 
 9625000   0.98093424 -2.3847776e-05   0.71431059  0.057677712            0   0.65663288    1.4346163    2.1489269  -0.29308538 
 9630000    1.1541734 -1.4151348e-05    0.4723406 0.0037293197            0   0.46861128    1.6879787    2.1603193   0.71122121 
 9635000    1.0041712 -2.9888902e-05   0.65095539 6.195072e-05            0   0.65089344    1.4686004    2.1195558   -0.9410678 
 9640000    1.0694482 5.6350328e-05   0.48963183 0.0074204863            0   0.48221134    1.5640679    2.0536998    7.8239733 
 9645000    1.0983755 -2.7673478e-05   0.46064602  0.050567266            0   0.41007875    1.6063741    2.0670202  -0.76674394 
 9650000    0.9686839 -0.00011172486    0.6430024  0.044120819            0   0.59888158    1.4167002    2.0597026   -9.3809231 
 9655000    1.0634412 2.7077552e-05   0.49949824 0.0047634978            0   0.49473474    1.5552827     2.054781    4.8275223 
 9660000    1.0170993 5.1218157e-05   0.55028368 0.0010269651            0   0.54925671    1.4875077    2.0377914    7.2825307 
 9665000    1.0313722 -5.2045169e-05   0.56114599 0.00020351223            0   0.56094248    1.5083819    2.0695278   -3.2598974 
 9670000    1.0587766 -4.5556113e-05   0.51633235            0            0   0.51633235    1.5484608    2.0647931   -2.6001529 
 9675000    0.9715108 1.496411e-05   0.62670471            0            0   0.62670471    1.4208346    2.0475393    3.5798641 
 9680000    1.1357611 1.3465949e-06   0.37959627            0            0   0.37959627    1.6610506    2.0406469    2.1785382 
 9685000   0.99642066 -2.3016094e-05   0.50295039            0            0   0.50295039    1.4572652    1.9602156  -0.39663245 
 9690000   0.96720314 2.9479536e-05   0.55162746 0.0038242045            0   0.54780326    1.4145346    1.9661621    4.9848665 
 9695000   0.97628968 1.921631e-05   0.57069209  0.032841546            0   0.53785055    1.4278237    1.9985158    3.9662659 
 9700000   0.92204535 1.3045597e-05   0.67673023  0.043488973            0   0.63324126    1.3484913    2.0252216    3.3610907 
 9705000   0.89260731 2.8779025e-05    0.7009025  0.093971429            0   0.60693107    1.3054382    2.0063407    4.9533128 
 9710000   0.91187429 3.6452803e-05   0.70903683  0.067591764            0   0.64144507    1.3336162     2.042653      5.77542 
 9715000   0.98198703 2.3532941e-05   0.64589174  0.046448229            0   0.59944351     1.436156    2.0820478    4.4918209 
 9720000    1.1062549 -3.9806323e-05   0.45569761 0.0052589304            0   0.45043868    1.6178978    2.0735954   -2.0025721 
 9725000   0.97773782 -0.00011137772   0.68675819 0.0083417526            0   0.67841644    1.4299416    2.1166998    -9.288379 
 9730000     1.030801 -5.7701892e-05   0.59261262  0.018492624            0      0.57412    1.5075464     2.100159   -3.8085147 
 9735000    1.0720948 7.0417503e-06   0.55054049  0.034628977            0   0.51591151    1.5679386    2.1184791    2.8395544 
 9740000   0.97636416 -0.00011443249    0.6987273  0.074396952            0   0.62433035    1.4279326    2.1266599   -9.5912267 
 9745000    1.1128376 -9.7131271e-05   0.49780153  0.021076413            0   0.47672512    1.6275249    2.1253265   -7.8209157 
 9750000    1.0617487 2.7499385e-05   0.56207715  0.010724911            0   0.55135224    1.5528074    2.1148846    4.9308217 
 9755000    1.1460795 3.9065167e-05   0.44754692  0.027825181            0   0.41972174    1.6761412    2.1236881    6.1239612 
 9760000   0.94090973  7.33078e-06   0.72400316  0.039728595            0   0.68427456    1.3760805    2.1000836    2.8507555 
 9765000    1.0891793 5.5738527e-06   0.52035706  0.023890767            0   0.49646629    1.5929247    2.1132817    2.6840443 
 9770000    1.0274867 1.4301494e-05   0.61452545  0.043669424            0   0.57085603    1.5026992    2.1172247    3.5816977 
 9775000    1.0325548 2.0346431e-05   0.63707186  0.048801727            0   0.58827013    1.5101113    2.1471832    4.2306577 
 9780000    1.0869045 6.7341424e-06   0.58696116  0.052872358            0    0.5340888    1.5895978     2.176559    2.8661352 
 9785000    1.1227885 -9.150806e-05   0.56932977 0.0092517142            0   0.56007805    1.6420782     2.211408   -7.1590173 
 9790000    1.1812149 -3.5388246e-05   0.48641699 0.0044104283            0   0.48200656    1.7275269    2.2139439   -1.4098125 
 9795000    1.1928137  3.63813e-05   0.49660475 0.0049761373            0   0.49162861    1.7444901    2.2410948    5.9665399 
 9800000    1.2019499 2.5183178e-05    0.5147733  0.063589519            0   0.45118378    1.7578518    2.2726251    4.8513824 
 9805000     1.086767 -7.376565e-05   0.68921102  0.027152038            0   0.66205898    1.5893968    2.2786078   -5.2749948 
 9810000    1.2945752 -4.3079192e-05   0.41468592 2.245707e-05            0   0.41466346    1.8933162    2.3080021   -2.1033071 
 9815000     1.225709 6.5991752e-05   0.47041463            0            0   0.47041463    1.7925995    2.2630141    9.0205695 
 9820000    1.2077833 -6.2963773e-06   0.51170896  0.017301752            0   0.49440721    1.7663831    2.2780921     1.633343 
 9825000    1.0573199 4.8333363e-05   0.69861062  0.068908144            0   0.62970247    1.5463304     2.244941    7.1942773 
 9830000    1.2128554 6.856334e-05   0.44243527  0.044953223            0   0.39748205     1.773801    2.2162363    9.2371223 
 9835000    1.1471263 -3.1946618e-05   0.55773999  0.051417071            0   0.50632292    1.6776722    2.2354122   -1.0359216 
 9840000    1.1681091 -5.1046376e-06   0.59482653  0.037841728            0    0.5569848    1.7083595     2.303186    1.7804712 
 9845000    1.0839133 -8.9629162e-05   0.69052549  0.033026165            0   0.65749933    1.5852232    2.2757487   -6.9022775 
 9850000    1.0432693 6.1195858e-05   0.72211659   0.04213289            0    0.6799837    1.5257814     2.247898    8.5143539 
 9855000    1.1837909 -2.2370609e-05   0.51732319  0.025409355            0   0.49191383    1.7312942    2.2486174 -0.042132938 
 9860000    1.1845214 -1.1182868e-05   0.49865641  0.031492216            0   0.46716419    1.7323626     2.231019    1.0858933 
 9865000    1.0670891 1.4016653e-05   0.69516531  0.020743825            0   0.67442148    1.5606178    2.2557831    3.6910884 
 9870000   0.96046415 -0.00011801509   0.80189929 0.0095254237            0   0.79237386    1.4046788    2.2065781   -9.8781672 
 9875000    1.1781138 4.4409995e-05   0.44217403            0            0   0.44217403    1.7229915    2.1651655     6.712749 
 9880000    1.1193103 0.00011623677   0.47317254 0.00078830027            0   0.47238424    1.6369913    2.1101639    14.012809 
 9885000   0.99813606 -4.9029325e-05   0.64304362 0.0029454173            0   0.64009821     1.459774    2.1028176   -2.9177852 
 9890000   0.97801483 2.3364823e-05   0.67365076 0.0018065681            0   0.67184419    1.4303467    2.1039974    4.4965553 
 9895000    1.1022318 3.5110612e-05   0.49985027 0.0001543579            0   0.49969592     1.612014    2.1118642    5.7071909 
 9900000    1.1438221  4.28546e-05   0.43476605 0.0046439074            0   0.43012214    1.6728398    2.1076059    6.4959169 
 9905000    1.0662725 1.6717892e-05   0.53734172 0.0041451264            0    0.5331966    1.5594235    2.0967653    3.8086774 
 9910000    1.0983983 -4.5875625e-05   0.54120227 0.00053801124            0   0.54066426    1.6064076    2.1476098   -2.5500541 
 9915000    1.1522167 4.164389e-05   0.52304173            0            0   0.52304173    1.6851169    2.2081586     6.472493 
 9920000    1.0812316 -9.13363e-05   0.63275024  0.013247528            0   0.61950271    1.5813013    2.2140515   -7.1387857 
 9925000    1.1271872 4.0803314e-05   0.55095161   0.12385681            0    0.4270948    1.6485113    2.1994629    6.3777223 
 9930000    1.0337498 -2.5833577e-05   0.65408364  0.064202928            0   0.58988071    1.5118591    2.1659428  -0.47941554 
 9935000    1.0475867 -5.0628378e-05   0.57849987   0.01094214            0   0.56755773    1.5320955    2.1105954   -3.0737505 
 9940000    1.0546291  2.26343e-05   0.60739274 0.0061040601            0   0.60128868     1.542395    2.1497877      4.46754 
 9945000    1.1060048 -2.9202423e-05   0.54474335  0.076948821            0   0.46779453     1.617532    2.1622753  -0.82805276 
 9950000    1.1543111 6.1165704e-05   0.52257139  0.033354176            0   0.48921722      1.68818    2.2107514    8.4741195 
 9955000    1.0945311 3.4467229e-05   0.61356128  0.019422919            0   0.59413836    1.6007517     2.214313    5.7437572 
 9960000    1.0473314 -0.00010345618   0.68983985  0.077240343            0   0.61259951    1.5317221     2.221562   -8.3723504 
 9965000    1.0997785 -4.7142498e-05   0.57500956  0.032002058            0   0.54300751     1.608426    2.1834356   -2.6439562 
 9970000    1.0514248 4.143369e-05   0.63636759 0.0065245738            0   0.62984301    1.5377087    2.1740763    6.4168861 
 9975000    1.1663201 -3.0925583e-06   0.46958452 0.00021556909            0   0.46936895    1.7057432    2.1753277    1.8586498 
 9980000    1.0826827 2.8026136e-06   0.56115683            0            0   0.56115683    1.5834235    2.1445803     2.431568 
 9985000   0.99778198 3.3897078e-05   0.69247441 0.0025342939            0   0.68994012    1.4592561    2.1517306    5.6227914 
 9990000    1.1012784  1.81355e-05   0.55082698  0.016495171            0   0.53433181    1.6106196    2.1614466    4.0185219 
 9995000     1.010616 6.8217479e-06   0.70985264 0.0097767949            0   0.70007584    1.4780259    2.1878786    2.8864256 
10000000    1.1164335 -6.8370589e-06    0.5681093 0.00019520763            0   0.56791409     1.632784    2.2008933    1.5007784 
10005000    1.0492978 7.5093333e-05   0.66994288            0            0   0.66994288     1.534598    2.2045409    9.8940982 
10010000    1.1602283 8.5149623e-05   0.53157118            0            0   0.53157118    1.6968339     2.228405    10.947726 
10015000    1.2146905 -7.2260629e-05    0.4668606 0.00081070143            0    0.4660499    1.7764849    2.2433455   -5.1561429 
10020000     1.045429 -8.9277426e-05   0.69545424  0.038064822            0   0.65738941      1.52894    2.2243942   -6.9176142 
10025000    1.1768503 7.2496336e-05   0.50190571  0.051917187            0   0.44998852    1.7211436    2.2230493    9.6466741 
10030000    1.1007149 7.7536835e-05   0.58849646  0.029839205            0   0.55865726    1.6097955    2.1982919    10.138064 
10035000    1.0523774 1.351945e-05   0.67539332  0.086701638            0   0.58869169     1.539102    2.2144953    3.5988869 
10040000    1.0617546 -4.8515506e-05   0.67781479  0.064257449            0   0.61355734     1.552816    2.2306308   -2.7373569 
10045000   0.97158851 -5.7742936e-05    0.7912196  0.031859188            0   0.75936042    1.4209482    2.2121678   -3.7007089 
10050000    1.0155656 4.4988352e-05   0.70575299  0.019515064            0   0.68623793    1.4852648    2.1910177     6.797825 
10055000     1.010055 9.4584955e-06   0.67147195 0.0070715589            0   0.66440039    1.4772054    2.1486774    3.1172273 
10060000    1.1339213 -5.9704104e-05   0.50245147   0.02306273            0   0.47938874    1.6583599    2.1608114   -3.9528888 
10065000   0.83800085 -0.00010854019   0.94777502 0.0078722594            0   0.93990276    1.2255762    2.1733513   -8.9411643 
10070000     1.077494 -2.7491584e-05   0.63077848  0.014813568            0   0.61596492     1.575835    2.2066135  -0.60852475 
10075000    1.1204395 2.1678231e-05   0.57689269  0.038481526            0   0.53841116    1.6386428    2.2155355    4.4353863 
10080000     1.116745 2.0931204e-05   0.60245847  0.036937778            0   0.56552069    1.6332396    2.2356981    4.3790533 
10085000   0.97048679 -5.8549974e-06    0.8352107  0.016759933            0   0.81845077    1.4193369    2.2545476    1.6549959 
10090000    1.1676077 7.7044959e-05   0.53319751  0.023750388            0   0.50944712    1.7076262    2.2408237    10.130228 
10095000    1.1466675 0.00010157107   0.57829106  0.022335505            0   0.55595556    1.6770012    2.2552923     12.65617 
10100000    1.0347832 8.7361335e-05   0.72277601  0.022962372            0   0.69981364    1.5133704    2.2361464    11.181947 
10105000    1.0078078 8.4890189e-05   0.73095152  0.041814807            0   0.68913672     1.473919    2.2048705    10.897626 
10110000    1.1558079 3.9682849e-05   0.48374171  0.047387325            0   0.43635438    1.6903691    2.1741108    6.2376345 
10115000    1.0511283 1.1004807e-05   0.63203822  0.058190442            0   0.57384778    1.5372751    2.1693133    3.2962055 
10120000    1.1706588 -3.2191183e-05   0.45107357  0.044174279            0   0.40689929    1.7120884     2.163162   -1.1332151 
10125000   0.99526765 -7.8724288e-05   0.72046899  0.080901125            0   0.63956786    1.4555789    2.1760479   -5.8853191 
10130000    1.0023834 1.9825401e-06   0.66906895  0.044198048            0    0.6248709    1.4659858    2.1350547    2.3380668 
10135000    1.0687394 0.00013019385   0.56819805  0.023614911            0   0.54458314    1.5630314    2.1312294     15.46308 
10140000    1.1456296 0.00010774974   0.47290207 0.0030768921            0   0.46982518    1.6754834    2.1483854    13.181959 
10145000    1.0536035 6.8680983e-05   0.60526362 0.0014709883            0   0.60379263    1.5408951    2.1461587    9.1790913 
10150000    1.0519476 2.2291527e-05   0.59522965 0.0069023842            0   0.58832727    1.5384733     2.133703    4.4163553 
10155000   0.98642023 -1.451713e-06   0.67441296 0.0038072274            0   0.67060573    1.4426396    2.1170525    1.9683971 
10160000    1.0414705 -9.1579245e-05   0.61613844 0.0093880659            0   0.60675038    1.5231507    2.1392891   -7.2384255 
10165000    1.0293491 -0.00012345656     0.655634  0.020889006            0   0.63474499     1.505423     2.161057   -10.480895 
10170000   0.98444333 5.5719546e-06   0.68908148 0.0076610937            0   0.68142039    1.4397484    2.1288299     2.699398 
10175000   0.90585356 1.8799081e-05   0.79373335 4.7128798e-05            0   0.79368622    1.3248108    2.1185442    4.0435701 
10180000    1.0802087 1.4350311e-05   0.54828162 0.00092009541            0   0.54736152    1.5798053    2.1280869    3.5975587 
10185000   0.97551266 -5.899767e-05   0.65919491 0.0056182749            0   0.65357663    1.4266873    2.0858822   -3.9554792 
10190000   0.92024183 -0.00013415861   0.72274216  0.019258668            0   0.70348349    1.3458537    2.0685958   -11.669246 
10195000    1.0602974 -4.5466488e-05   0.51361956  0.029784563            0     0.483835     1.550685    2.0643045   -2.5914639 
10200000     1.043466 -7.6649358e-06   0.52043748  0.026536455            0   0.49390102     1.526069    2.0465064     1.261617 
10205000   0.98568099 -5.6299803e-05   0.60864243  0.025258614            0   0.58338382    1.4415585    2.0502009    -3.714899 
10210000   0.84095062 2.9173877e-06   0.84935227  0.014184257            0   0.83516801    1.2298903    2.0792426    2.3779831 
10215000   0.89403233 1.4141322e-05    0.7463366  0.009448743            0   0.73688785    1.3075223    2.0538589    3.5019303 
10220000   0.98854275 -3.4146126e-05   0.60029617  0.016086984            0   0.58420918    1.4457438    2.0460399   -1.4505234 
10225000   0.98714667 -0.0001019669   0.56693871  0.023244286            0   0.54369442     1.443702    2.0106407   -8.4307698 
10230000   0.94167937 -0.00013532474   0.64744422  0.030097532            0   0.61734668    1.3772061    2.0246503   -11.832603 
10235000   0.97763422 -6.8556142e-05   0.56799687 0.0078613789            0   0.56013549      1.42979    1.9977869    -5.022362 
10240000   0.90533319 1.3603178e-05   0.68250785   0.12180608            0   0.56070177    1.3240498    2.0065576    3.3995231 
10245000    1.0034634 9.9810349e-06   0.50052291   0.02649287            0   0.47403004    1.4675652    1.9680881    2.9901461 
10250000    0.9865009 2.1108183e-05   0.52223459  0.012840679            0   0.50939391    1.4427576    1.9649922    4.1264701 
10255000    1.0585335 0.00010236743    0.4006501  0.014990304            0    0.3856598    1.5481053    1.9487554     12.43118 
10260000    1.0542855 9.1829456e-05   0.39869093  0.013557026            0    0.3851339    1.5418925    1.9405834     11.34392 
10265000   0.95207382 -3.7023975e-05   0.53545469 0.0022979761            0   0.53315671     1.392408    1.9278626   -1.8633923 
10270000   0.80266631 -5.1750007e-05   0.75927091 0.0004342945            0   0.75883661    1.1738995    1.9331704   -3.3660303 
10275000    1.0681198 3.787735e-05   0.39115249 0.0076224784            0   0.38353001    1.5621252    1.9532777    5.8319184 
10280000    0.9531579 9.2576991e-05   0.58546717  0.022606414            0   0.56286076    1.3939934    1.9794606    11.459344 
10285000   0.85116279 2.1553501e-05   0.72363941  0.020902463            0   0.70273694    1.2448256     1.968465    4.1755435 
10290000    1.0296849 -9.656047e-05   0.51514301  0.035159723            0   0.47998329    1.5059141    2.0210572   -7.8667349 
10295000    1.0040721 -4.0078682e-05   0.50046866  0.032447109            0   0.46802155    1.4684555    1.9689241   -2.1351329 
10300000    1.0962125 1.4219127e-05   0.40237393 0.0029278412            0   0.39944609    1.6032108    2.0055848    3.4616234 
10305000   0.92180001 5.6659759e-06   0.64071276  0.002896736            0   0.63781602    1.3481325    1.9888453    2.5690412 
10310000   0.95294254 -6.2500692e-05   0.59592636  0.030974328            0   0.56495203    1.3936785    1.9896048    -4.410466 
10315000    0.8889997 -9.84448e-05   0.63558604  0.040882046            0   0.59470399    1.3001621    1.9357481   -8.1449994 
10320000   0.88082798 2.6960806e-05   0.66153539   0.04703817            0   0.61449722    1.2882109    1.9497463    4.7105329 
10325000   0.97903389 3.2835676e-05   0.50793215  0.059908942            0   0.44802321    1.4318371    1.9397692    5.3021425 
10330000    1.0013224 1.7566295e-06   0.47680835   0.03053988            0   0.44626847     1.464434    1.9412424    2.1211212 
10335000   0.93797948 7.7366322e-06    0.5836261  0.057382632            0   0.52624347     1.371795    1.9554211    2.7476522 
10340000    0.9849089 -1.1262829e-05    0.5214144  0.013165377            0   0.50824903    1.4404293    1.9618437   0.80852995 
10345000   0.99518926 5.6807307e-06    0.5072321   0.04086262            0   0.46636948    1.4554643    1.9626964    2.5444032 
10350000    1.0097123 1.6582027e-06   0.52924971  0.086151209            0    0.4430985    1.4767042     2.005954    2.1757539 
10355000   0.97821118 -0.00010683181   0.58579325  0.063980909            0   0.52181235    1.4306338    2.0164271   -8.9231504 
10360000   0.97705217 -9.2338249e-05   0.59761541 0.0059715311            0   0.59164388    1.4289388    2.0265542   -7.4288825 
10365000   0.95929288 3.5336054e-05   0.59322613 0.0035850015            0   0.58964113    1.4029658     1.996192    5.6146039 
10370000   0.98014093 3.5325157e-05   0.56866642 0.0017920293            0   0.56687439    1.4334561    2.0021225    5.6194186 
10375000    1.0213673 -4.1481139e-05   0.52405188 0.00015518908            0   0.52389669    1.4937497    2.0178016   -2.2298671 
10380000   0.96107518 -9.01701e-05     0.617115 0.0016972279            0   0.61541778    1.4055725    2.0226875   -7.2107308 
10385000    1.0873501 -8.5915961e-05   0.40100585 0.0051661187            0   0.39583973    1.5902495    1.9912554    -6.806539 
10390000   0.97432043 -5.8437853e-05   0.52780166 0.0041894259            0   0.52361224    1.4249436    1.9527453   -4.0312909 
10395000   0.96227255 -6.3666451e-05   0.59379927  0.001362202            0   0.59243706    1.4073236    2.0011229   -4.5183217 
10400000    1.0732228 2.4520468e-05   0.42462429 0.0069056354            0   0.41771865    1.5695884    1.9942127    4.5051086 
10405000   0.99871663 8.7453081e-05   0.59056106  0.037388811            0   0.55317225    1.4606231    2.0511841     11.00638 
10410000   0.97081884 1.0157761e-05   0.62853826  0.036315332            0   0.59222293    1.4198226    2.0483608    3.0885155 
10415000   0.95753927 -1.3582848e-05   0.63445649  0.017981991            0    0.6164745    1.4004012    2.0348577   0.64397407 
10420000    1.0689695 4.9205718e-06   0.42686076 0.0055546976            0   0.42130606    1.5633679    1.9902287    2.4940952 
10425000   0.94096024 5.4580992e-05   0.63986126  0.013777088            0   0.62608417    1.3761543    2.0160156    7.6051092 
10430000    0.9880115 -4.716901e-05   0.60280628  0.029732421            0   0.57307386    1.4449668    2.0477731   -2.7823335 
10435000   0.96846764 -6.4027375e-06   0.61198931  0.042693685            0   0.56929562    1.4163839    2.0283732    1.3727329 
10440000   0.91985749 9.6729378e-05   0.69638833  0.082103525            0    0.6142848    1.3452916    2.0416799    11.946768 
10445000   0.96718883 -5.1666777e-05   0.65472434  0.019212396            0   0.63551194    1.4145137     2.069238   -3.2214399 
10450000    1.1377983 -3.135803e-05   0.42473109 0.0029487687            0   0.42178232    1.6640301    2.0887612   -1.1223011 
10455000    1.0734618 -6.6462222e-06   0.50497637 0.00074188025            0   0.50423449    1.5699379    2.0749142    1.3943411 
10460000   0.95063484 -3.5650697e-05   0.66426239 0.0052346865            0    0.6590277    1.3903035    2.0545658   -1.5960656 
10465000    1.0074602 -2.3677142e-05   0.60874641   0.05290998            0   0.55583643    1.4734105    2.0821569  -0.34238247 
10470000    1.0733406 -3.0077676e-06   0.54910293  0.025865596            0   0.52323733    1.5697606    2.1188635    1.8108681 
10475000   0.99331923 2.3277495e-05    0.6925123  0.068619637            0   0.62389266    1.4527294    2.1452417    4.5288572 
10480000    1.0685364 -2.4030508e-05   0.58093056  0.033213961            0    0.5477166    1.5627345    2.1436651  -0.31705896 
10485000    1.0061567 -4.1792287e-05   0.66472065  0.016851837            0   0.64786882    1.4715041    2.1362248   -2.1433054 
10490000    1.1399185 -5.9024127e-06   0.50539879 0.0016296128            0   0.50376917    1.6671309    2.1725296    1.5681226 
10495000    1.0101373 3.519883e-05   0.67580439            0            0   0.67580439    1.4773258    2.1531302    5.7574904 
10500000   0.97503475 8.5344913e-06   0.70855326            0            0   0.70855326    1.4259883    2.1345416    3.0084735 
10505000    1.1802485 -4.2116023e-05   0.47609148 0.0048788707            0   0.47121261    1.7261135     2.202205   -2.1104758 
10510000    1.0601795 -4.6679641e-06   0.62701614  0.094614062            0   0.53240208    1.5505125    2.1775287    1.6995292 
10515000    1.0215271 1.2942925e-06   0.69084742   0.04484264            0   0.64600478    1.4939834    2.1848308    2.3173663 
10520000    1.0448046 4.3129762e-05   0.64181086            0            0   0.64181086    1.5280267    2.1698375    6.5863251 
10525000     0.992591 3.2598239e-05   0.71162728            0            0   0.71162728    1.4516643    2.1632916    5.5013513 
10530000    1.0332942 -9.5736164e-06   0.60809295            0            0   0.60809295    1.5111928    2.1192858    1.1389475 
10535000    1.1295317 -2.6963251e-05   0.48260706            0            0   0.48260706    1.6519401    2.1345472  -0.62648977 
10540000    1.0257111 1.317645e-05   0.65207345 6.2838616e-06            0   0.65206717    1.5001025    2.1521759    3.5014444 
10545000    1.0771721 3.7571804e-05   0.56852231  0.001287949            0   0.56723436    1.5753641    2.1438864    5.9912391 
10550000    1.0140886 -1.2084313e-05   0.60887067 0.0036764847            0   0.60519419    1.4831046    2.0919753   0.85454166 
10555000   0.97134191 -3.6984546e-05   0.64374262 0.0065795782            0   0.63716304    1.4205875    2.0643302   -1.7228874 
10560000   0.98638142 -0.00010010329   0.66026841 0.0087435299            0   0.65152488    1.4425828    2.1028512   -8.1477256 
10565000   0.98657632 -4.3753517e-05   0.64065082 0.0067989718            0   0.63385184    1.4428679    2.0835187   -2.3968415 
10570000   0.94807542 3.6990736e-05   0.68681473  0.013291369            0   0.67352336    1.3865603     2.073375    5.8612264 
10575000    1.0544248 3.3470016e-05   0.54113472  0.040650959            0   0.50048376    1.5420963    2.0832311    5.5105607 
10580000    1.1154223 1.1508275e-05   0.48976257   0.01567979            0   0.47408278    1.6313052    2.1210677    3.2995151 
10585000   0.99139146 -3.9786049e-05   0.67745333 0.00026136175            0   0.67719197      1.44991    2.1273633   -1.9467281 
10590000   0.97353046 -8.9725753e-05   0.70636351  0.019017937            0   0.68734558    1.4237883    2.1301518   -7.0577653 
10595000    1.0077622 4.1950363e-05   0.65841549  0.067922487            0     0.590493    1.4738522    2.1322677    6.4279849 
10600000    0.9547316 0.00014456605   0.73789445 0.0057018229            0   0.73219263     1.396295    2.1341894    16.937753 
10605000     1.000476 2.6346523e-05   0.72036185 0.00011583205            0   0.72024602    1.4631961     2.183558     4.881442 
10610000    1.1437793 5.8883446e-06    0.5350653  0.021839051            0   0.51322625    1.6727772    2.2078425     2.810809 
10615000    1.0505038 0.00012618351   0.71734662  0.024988483            0   0.69235813    1.5363618    2.2537084      15.1749 
10620000    1.1392905 4.3604125e-05   0.60002599 0.0095403382            0   0.59048565    1.6662123    2.2662383    6.7313007 
10625000    1.1249068 5.0554356e-05    0.6386488  0.038012702            0    0.6006361    1.6451762     2.283825    7.4605911 
10630000    1.2135903 8.3019276e-05   0.44297885  0.027670909            0   0.41530795    1.7748759    2.2178547    10.719029 
10635000    1.0178044 -9.0919791e-06   0.72840765 0.0066949322            0   0.72171272    1.4885389    2.2169465    1.2859279 
10640000    1.0604304 6.8739492e-05    0.6911726 0.0066172892            0   0.68455531    1.5508794     2.242052     9.280976 
10645000   0.95528954 3.0168222e-05   0.87951297 0.0079756147            0   0.87153736    1.3971109    2.2766239    5.3658499 
10650000    1.0708368 9.216872e-05   0.71760661  0.010189678            0   0.70741693    1.5660988    2.2837054    11.721782 
10655000    1.1677376 2.8854195e-05   0.59472721  0.020652331            0   0.57407488    1.7078163    2.3025435    5.2572131 
10660000      1.12034 9.0677354e-05   0.62603877  0.021384826            0   0.60465394    1.6384972     2.264536    11.549897 
10665000    1.1002533 -1.3727592e-05   0.66222175  0.016769457            0    0.6454523    1.6091204    2.2713422    0.8656368 
10670000   0.97646079 -0.0001040866   0.80554349  0.039656262            0   0.76588723    1.4280739    2.2336174   -8.4248503 
10675000    1.0383393 3.5816677e-05   0.68710597 0.0043523883            0   0.68275358    1.5185712    2.2056772    5.8733049 
10680000    1.1107975 1.1065913e-05   0.55207019 0.0023111803            0   0.54975901    1.6245413    2.1766115    3.3097609 
10685000    1.0423817 -7.1380223e-05   0.62107983 0.0038439836            0   0.61723585    1.5244833    2.1455631   -5.1637718 
10690000     1.149836 8.3156921e-05    0.4948389 0.0060328578            0   0.48880604    1.6816351     2.176474    10.691743 
10695000     1.060078 0.00012948094   0.66354506 0.0086011442            0   0.65494392    1.5503641    2.2139092    15.472757 
10700000   0.97735613 -5.3491851e-05   0.71699618  0.025343835            0   0.69165234    1.4293833    2.1463795   -3.3311861 
10705000    1.0800243 6.7033605e-05   0.53404534 0.0080408311            0    0.5260045    1.5795356    2.1135809    8.9778221 
10710000   0.97470315 1.7913945e-05   0.71610105            0            0   0.71610105    1.4255034    2.1416044    3.9759924 
10715000    1.1149659 -0.00011478405   0.50845385            0            0   0.50845385    1.6306376    2.1390914   -9.6147948 
10720000     1.009503 2.0003688e-05   0.66771655 9.807857e-05            0   0.66761847    1.4763981    2.1441146    4.1924922 
10725000    1.0048055 8.1220139e-05   0.65006547 0.00061412877            0   0.64945134     1.469528    2.1195935    10.436536 
10730000   0.95293836 -6.574408e-05   0.71777764 0.0013191894            0   0.71645845    1.3936723      2.11145   -4.6207438 
10735000    1.1344137 -8.6159452e-05   0.43541867 0.0037348603            0   0.43168381      1.65908    2.0944987   -6.7282292 
10740000   0.87390906 -3.0246103e-05    0.7362163 0.0076829205            0   0.72853338     1.278092    2.0143083   -1.0828927 
10745000   0.95314394 -0.00010434441   0.60690701 0.0053425001            0   0.60156451     1.393973      2.00088   -8.6839874 
10750000   0.86848059 -9.9917693e-05   0.72232594 0.0070575755            0   0.71526836    1.2701529    1.9924788    -8.239093 
10755000   0.90486877 9.770888e-05   0.66543562  0.021650289            0   0.64378533    1.3233706    1.9888062    11.994196 
10760000   0.89872671 0.00011582252   0.66594593  0.053432903            0   0.61251303    1.3143878    1.9803337     13.84056 
10765000   0.86322656 -6.1464028e-05   0.65778048  0.026685459            0   0.63109502    1.2624688    1.9202493   -4.3736671 
10770000   0.92824402 -3.6564172e-05   0.57106283 0.0031901987            0   0.56787263    1.3575569    1.9286197   -1.8155515 
10775000   0.87984073 4.0452581e-05   0.63394298 0.0079590604            0   0.62598392    1.2867671    1.9207101    6.0630543 
10780000    0.8939814 -3.6541709e-05   0.59644157 0.0081323844            0   0.58830918    1.3074478    1.9038894   -1.8379816 
10785000    0.8353134 -0.00010713418   0.65806917 0.0018032684            0    0.6562659    1.2216458     1.879715    -9.090825 
10790000   0.93422863 7.1083054e-06   0.49398124 0.0024282052            0   0.49155303    1.3663094    1.8602906    2.5881811 
10795000   0.71109758 8.9817801e-05   0.80932082 0.0025108736            0   0.80680995    1.0399802     1.849301    11.046644 
10800000   0.98935495 3.3446381e-05   0.40760524 7.365547e-05            0   0.40753158    1.4469316    1.8545368    5.2794463 
10805000   0.89089317 4.4575731e-05   0.59086241            0            0   0.59086241    1.3029313    1.8937937    6.4583485 
10810000   0.84014038 9.5620984e-05   0.66651774  0.003269735            0     0.663248    1.2287053     1.895223    11.686812 
10815000   0.90402682 1.6380086e-06   0.59253498 0.0090330158            0   0.58350196    1.3221392    1.9146742    2.0824063 
10820000   0.92400405 -8.6377184e-05    0.5965953 0.0044450156            0   0.59215028    1.3513559    1.9479512   -6.8970724 
10825000   0.95732725 -1.0577142e-05   0.57377303  0.010761906            0   0.56301112    1.4000911    1.9738641   0.89076479 
10830000   0.98801603 -1.3889551e-05    0.5184716   0.01478355            0   0.50368805    1.4449734     1.963445   0.54115503 
10835000   0.83890149 -7.4509306e-05   0.75002277 0.0032603442            0   0.74676242    1.2268934    1.9769162   -5.6528368 
10840000    1.0092042 3.1129362e-05   0.48524408 0.0018264935            0   0.48341758    1.4759611    1.9612052    5.1488519 
10845000   0.89265854 4.3751402e-05   0.69029709   0.04578012            0   0.64451697    1.3055131    1.9958102    6.4759538 
10850000   0.93710065 2.7740679e-05   0.62481252  0.081657947            0   0.54315457    1.3705097    1.9953222    4.8359677 
10855000   0.82618571 9.4685382e-07   0.76707306  0.030282967            0   0.73679009    1.2082966    1.9753697    2.0723275 
10860000   0.99694741 -9.6107829e-06   0.54926572  0.014285702            0   0.53498002    1.4580356    2.0073013    1.0231571 
10865000   0.97810015 -1.2018693e-05   0.60102258  0.016546349            0   0.58447623    1.4304715     2.031494   0.80077987 
10870000   0.96467033 -2.7469077e-05   0.64810121  0.028385668            0   0.61971554    1.4108304    2.0589316  -0.75390189 
10875000     1.010955 3.5001603e-05   0.60051411 0.0077746457            0   0.59273946    1.4785217    2.0790358       5.6632 
10880000   0.84949127 -4.3689925e-06   0.83945564  0.046291694            0   0.79316395     1.242381    2.0818366    1.6344518 
10885000   0.92301698 -2.9168795e-05   0.72325681  0.031588306            0   0.69166851    1.3499123    2.0731691  -0.91371546 
10890000    1.1493507 3.2941684e-05   0.41593127 0.0041952916            0   0.41173598    1.6809254    2.0968566    5.4700851 
10895000   0.96118586 7.5471003e-05   0.68987214 0.0065611184            0   0.68331102    1.4057343    2.0956065    9.8238372 
10900000   0.97624853 -1.8515468e-05   0.65568113  0.015323713            0   0.64035741    1.4277635    2.0834446    0.1874607 
10905000    1.1060805 3.8178024e-05   0.49252598    0.0360694            0   0.45645658    1.6176427    2.1101687    6.0195983 
10910000   0.98222785 4.1891653e-05   0.67384496  0.014437739            0   0.65940722    1.4365082    2.1103532    6.4000584 
10915000   0.97998462 -6.1835659e-05    0.7063487 0.0019753143            0   0.70437339    1.4332275    2.1395762   -4.1923953 
10920000   0.88729724 -2.3884952e-05   0.84258179 0.0091861367            0   0.83339565    1.2976722     2.140254  -0.30556507 
10925000    1.0075502 4.5736822e-05    0.6907414  0.017343563            0   0.67339783    1.4735422    2.1642836    6.8477342 
10930000   0.99004055 2.5684116e-05   0.70592696  0.012309062            0    0.6936179    1.4479343    2.1538613    4.7839147 
10935000   0.99104554 3.4255653e-05   0.74171371  0.026077283            0   0.71563642    1.4494041    2.1911178    5.6988967 
10940000   0.92868255 -7.6101693e-06   0.86406712  0.016180286            0   0.84788683    1.3581982    2.2222653     1.442984 
10945000   0.97013739 7.5611968e-05   0.80159637  0.025618817            0   0.77597755    1.4188259    2.2204223    9.9630878 
10950000   0.96123825 5.0011613e-05     0.873093  0.041938901            0    0.8311541    1.4058109    2.2789039    7.4000931 
10955000    1.0181998 3.1900339e-05   0.80024662   0.00987904            0   0.79036758    1.4891173    2.2893639    5.5559585 
10960000    1.2382839 -1.9266504e-05   0.48125356 0.0035472337            0   0.47770632    1.8109902    2.2922438   0.31935376 
10965000    1.2115848 -3.138505e-05   0.52315335  0.014828792            0   0.50832456    1.7719428    2.2950961  -0.91873294 
10970000    1.0399672 1.3853947e-05   0.77313274  0.035709745            0     0.737423    1.5209521    2.2940848    3.7127291 
10975000     1.065725 -4.5661216e-05   0.72910623  0.017586471            0   0.71151976    1.5586228     2.287729   -2.3879796 
10980000   0.92708398 -8.1629369e-05   0.94037042 0.0085945332            0   0.93177588    1.3558603    2.2962307   -6.0626166 
10985000    1.2282177 -2.057456e-05   0.54308072 0.0047456627            0   0.53833506    1.7962683    2.3393491   0.23251408 
10990000    1.1325121 3.1389622e-05   0.67544833  0.011526727            0    0.6639216    1.6562989    2.3317473    5.5460446 
10995000    0.9844242 -4.5486554e-08   0.84186965  0.019138166            0   0.82273149    1.4397204      2.28159    2.2769322 
11000000    1.1175662 -0.0001085219   0.67481439  0.018335592            0    0.6564788    1.6344406     2.309255   -8.8033871 
11005000    1.0951469 -0.00014158709   0.70072046  0.011910843            0   0.68880962    1.6016523    2.3023728   -12.196145 
11010000   0.99878501 -6.1722902e-06   0.83594513 0.0011629648            0   0.83478217    1.4607231    2.2966682    1.6646257 
11015000    1.1460263 5.9136564e-05   0.61720639 0.0011701651            0   0.61603623    1.6760635    2.2932699    8.3488541 
11020000    1.2564001 3.458761e-05   0.46930614 0.0078517685            0   0.46145438    1.8374851    2.3067913    5.8485626 
11025000    1.0521203 -5.7676654e-05   0.71377973  0.011809284            0   0.70197045     1.538726    2.2525057   -3.6535837 
11030000     1.181452 -1.5645681e-05   0.56242486  0.010921381            0   0.55150347    1.7278735    2.2902984   0.68818063 
11035000     1.029839 0.00010800068   0.79748024  0.013721244            0     0.783759    1.5061396    2.3036198     13.36289 
11040000    1.1340476 0.00010110932   0.69808034  0.043267414            0   0.65481293    1.6585447     2.356625    12.710219 
11045000    1.0910512 9.9473554e-05   0.75554647  0.027749432            0   0.72779703    1.5956624    2.3512089    12.537301 
11050000   0.99507223  9.37601e-06    0.8970744 0.0042630408            0   0.89281135    1.4552931    2.3523675     3.312471 
11055000    1.0459652 1.1043734e-05    0.8463454  0.032434224            0   0.81391117    1.5297241    2.3760695    3.5069479 
11060000    1.0918351 0.00016929652   0.73766994  0.046418586            0   0.69125135    1.5968089    2.3344788    19.670442 
11065000    1.0845796 8.3174102e-05   0.75952822  0.023268014            0   0.73626021    1.5861976    2.3457259    10.862754 
11070000    1.1855209 -8.0183878e-05    0.6279097  0.011150914            0   0.61675878    1.7338243     2.361734   -5.8490951 
11075000    1.0623248 -4.6873906e-05   0.77047679  0.024375328            0   0.74610146      1.55365    2.3241267   -2.4757612 
11080000    1.0200162 5.9054701e-06   0.83454722  0.020893043            0   0.81365418    1.4917736    2.3263209     2.931041 
11085000    1.0869854 -4.6992927e-06   0.72849069 0.0017396658            0   0.72675102    1.5897162    2.3182068    1.8369993 
11090000     1.130464 1.1051261e-05   0.66381032 0.00026246313            0   0.66354785    1.6533035    2.3171138     3.448763 
11095000    1.0840115 -8.3712242e-05   0.80825894            0            0   0.80825894    1.5853668    2.3936257   -6.1785079 
11100000     1.150469 -2.1743913e-05   0.73542973            0            0   0.73542973    1.6825609    2.4179906   0.19141393 
11105000    1.0121677 6.3492824e-05   0.92105895            0            0   0.92105895    1.4802953    2.4013543    8.9030194 
11110000    1.2611419 -3.4982864e-05   0.54877069            0            0   0.54877069    1.8444201    2.3931908   -1.1890545 
11115000     1.330919 -9.0654849e-05   0.47027061 0.0013226429            0   0.46894796     1.946469    2.4167396   -6.8663169 
11120000     1.159998 4.0404623e-05   0.78842427 0.0097614186            0   0.77866285    1.6964971    2.4849213    6.6223548 
11125000     1.191411 8.0495842e-06   0.75351931  0.034307135            0   0.71921217    1.7424385    2.4959578    3.3202353 
11130000    1.0949349 -2.2029055e-05   0.88990306  0.049347383            0   0.84055568    1.6013422    2.4912453   0.23547011 
11135000    1.3187417 -4.8331682e-06   0.58353043  0.012940711            0   0.57058972    1.9286597    2.5121901    2.0172737 
11140000    1.1066949 -2.2015001e-05   0.87526545 0.0099385075            0   0.86532695    1.6185412    2.4938067   0.23947058 
11145000    1.1939624 -2.4212655e-05   0.69663153  0.012359645            0   0.68427189    1.7461701    2.4428016 -0.036574217 
11150000    1.1357782 -6.3300081e-05   0.73445007  0.010542244            0   0.72390783    1.6610756    2.3955256   -4.0864027 
11155000    1.2572343 -4.3595255e-05   0.49959123 0.0097363176            0   0.48985492    1.8387051    2.3382964   -2.1258577 
11160000   0.97871712 -2.56181e-05   0.95059767  0.076149512            0   0.87444815    1.4313738    2.3819715  -0.24132198 
11165000    1.1197862 3.6306965e-05   0.70377553  0.092877915            0   0.61089761    1.6376874    2.3414629    6.0592961 
11170000    1.1212326 -8.0286716e-06   0.73401235  0.057720159            0   0.67629219    1.6398026     2.373815     1.551679 
11175000    1.1558872 -0.00011227047   0.72148839  0.021878459            0   0.69960993     1.690485    2.4119734   -9.0845227 
11180000    1.0523005 -9.7051146e-05   0.88672352  0.028152768            0   0.85857075    1.5389895     2.425713   -7.5123243 
11185000    1.1016938 -5.9517001e-05   0.85005464  0.021332758            0   0.82872188    1.6112271    2.4612818   -3.6332592 
11190000   0.99689289 -7.2926226e-05   0.97074448   0.11406501            0   0.85667948    1.4579559    2.4287003   -5.0389452 
11195000    1.2141042 -9.525778e-05   0.65179914  0.020911216            0   0.63088792    1.7756274    2.4274265   -7.3269701 
11200000    1.0756534 -3.7653836e-05    0.8578739  0.031239993            0   0.82663391    1.5731432    2.4310171   -1.4247357 
11205000    1.2254592 7.776739e-07   0.62179135 0.0049187785            0   0.61687257    1.7922341    2.4140254    2.4936592 
11210000    1.0866317 -4.8107071e-05   0.81895281 0.0017534872            0   0.81719933    1.5891989    2.4081517   -2.5180124 
11215000    1.1988653 -3.5129735e-05   0.60455123 0.0042349176            0   0.60031632    1.7533405    2.3578917   -1.2393931 
11220000    1.2598674 -9.9159846e-05   0.51181438 0.0035459617            0   0.50826842    1.8425561    2.3543705   -7.7995977 
11225000    1.1525084 -5.2474315e-05   0.65913354 0.0041065431            0     0.655027    1.6855435    2.3446771   -3.0286928 
11230000    1.0092868 4.8651615e-05   0.87720385 0.0071962857            0   0.87000757     1.476082    2.3532858    7.3352112 
11235000    1.0988012 -6.5459657e-05   0.72839929 0.0093848775            0   0.71901441    1.6069967     2.335396   -4.3676729 
11240000    1.1064519 -9.4848913e-05   0.70791765 0.0035356991            0   0.70438195    1.6181859    2.3261035   -7.3864252 
11245000    1.1785331 9.7795319e-06    0.5996617 0.0057449009            0   0.59391679    1.7236046    2.3232663    3.3246904 
11250000    1.1487549 4.6478349e-05   0.63688335  0.013548581            0   0.62333477    1.6800541    2.3169374    7.0763204 
11255000    1.2328381 2.8533817e-05   0.50746225 0.0065078663            0   0.50095438    1.8030257    2.3104879    5.2323508 
11260000    1.2130112 1.5024981e-05   0.56704793 0.0027656819            0   0.56428225    1.7740289    2.3410768    3.8796348 
11265000     1.106062 -9.5835268e-05   0.68783089  0.007679399            0   0.68015149    1.6176157    2.3054466   -7.5080848 
11270000    1.0830938 -0.00011470994   0.72373668 0.0092786429            0   0.71445804    1.5840247    2.3077614   -9.4385366 
11275000    1.1156907 -3.0721175e-05   0.74897608  0.034072467            0   0.71490361    1.6316977    2.3806738  -0.76517458 
11280000    1.1848112 -4.8874027e-05   0.66289784  0.060822994            0   0.60207485    1.7327863    2.3956842   -2.6090162 
11285000    1.0940316 -2.9503957e-05    0.7852228  0.017792198            0    0.7674306    1.6000212     2.385244  -0.63596116 
11290000    1.1720744 3.4497292e-05    0.6822722  0.078384076            0   0.60388813    1.7141589    2.3964311    5.9289538 
11295000   0.99000901 6.8758286e-05   0.97744787  0.025678709            0   0.95176916    1.4478882     2.425336    9.4661845 
11300000    1.1256979 -2.4565737e-06    0.7515417  0.040303758            0   0.71123794    1.6463332    2.3978749    2.1463218 
11305000    1.0540151 -3.9224453e-05   0.85238391  0.017288062            0   0.83509584    1.5414971     2.393881   -1.6227029 
11310000    1.1632216 -5.3033962e-05   0.71284644  0.019502046            0    0.6933444    1.7012116     2.414058   -3.0166196 
11315000    1.1614557 5.5144595e-05   0.76532177   0.03428523            0   0.73103654     1.698629    2.4639508    8.1107572 
11320000    1.1075992 5.3725763e-05    0.8647068  0.069018721            0   0.79568808    1.6198639    2.4845707    7.9860888 
11325000    1.2123204 -5.7190269e-05   0.72398005  0.017732376            0   0.70624768    1.7730186    2.4969987   -3.3592849 
11330000     1.153579 -4.393958e-05   0.78920078 0.0019496077            0   0.78725117    1.6871093    2.4763101   -2.0231029 
11335000    1.2401081 1.2179746e-05   0.67050733  0.010164237            0   0.66034309    1.8136581    2.4841655    3.7313714 
11340000    1.2281593 9.2276374e-05   0.65944669  0.016548024            0   0.64289867    1.7961829    2.4556296     11.90473 
11345000    1.2487496 2.8903293e-05   0.63280195 0.0056045497            0    0.6271974    1.8262964    2.4590983    5.4187955 
11350000    1.1459804 -3.6355397e-05   0.74824555 0.0056751316            0   0.74257041    1.6759964    2.4242419   -1.2985507 
11355000    1.2244969 6.7155534e-05   0.67756877  0.044075343            0   0.63349343    1.7908267    2.4683955    9.3451222 
11360000    1.2707658 1.3086862e-05   0.62091026  0.052622308            0   0.56828795     1.858495    2.4794052    3.8194999 
11365000    1.2144326 -5.8560495e-05   0.77039408  0.016035944            0   0.75435814    1.7761077    2.5465018   -3.4500929 
11370000    1.1746467 2.2159031e-05   0.85850284   0.03953003            0   0.81897281    1.7179208    2.5764236    4.8455084 
11375000    1.2415189 -5.0543607e-05   0.76208099  0.036417753            0   0.72566324    1.8157214    2.5778024    -2.597863 
11380000    1.2548765 -8.0443462e-05    0.7558756  0.030196448            0   0.72567915    1.8352569    2.5911325    -5.646278 
11385000    1.2678394 8.4170087e-05   0.67411738  0.011131185            0    0.6629862    1.8542151    2.5283324    11.147349 
11390000    1.1569831 7.7641264e-05   0.78490387 0.0010058573            0   0.78389801    1.6920878    2.4769916    10.427457 
11395000    1.0482768 -2.8279542e-05     0.927932 0.0027461988            0    0.9251858    1.5331048    2.4610368  -0.43478838 
11400000     1.247635 -8.6816322e-05   0.62443452  0.014007868            0   0.61042665    1.8246662    2.4491007   -6.4408907 
11405000    1.2110456 -0.00010010977    0.6796641  0.012645922            0   0.66701818    1.7711542    2.4508183   -7.8004223 
11410000    1.1969047 -4.8443929e-05   0.63077758  0.010511874            0   0.62026571    1.7504732    2.3812508   -2.5794076 
11415000    1.3258359 4.4333471e-05   0.43708674  0.013217074            0   0.42386967    1.9390351    2.3761218    6.9158692 
11420000    1.1132793 1.9248657e-05   0.81289774 0.0067796789            0   0.80611807     1.628171    2.4410688    4.4121312 
11425000   0.99381935 -3.6980874e-05   0.95774894 0.0058107244            0   0.95193822    1.4534608    2.4112097   -1.3756317 
11430000    1.2608215 -1.4469255e-05   0.59001663 0.0054842329            0    0.5845324    1.8439514    2.4339681   0.95231639 
11435000    1.2015702 4.3764969e-05    0.6378118 0.0064907253            0   0.63132107    1.7572965    2.3951083     6.876641 
11440000    1.2191133 -1.8276887e-05   0.57931259 0.0098053232            0   0.56950726    1.7829532    2.3622658   0.49071255 
11445000    1.1868019 -2.0584926e-05   0.61409518  0.046350312            0   0.56774487    1.7356977    2.3497929   0.24189647 
11450000    1.1217759 -8.3325429e-05   0.71970453  0.052369713            0   0.66733481    1.6405972    2.3603018   -6.1722221 
11455000    1.0144837 -0.00013276832   0.82995283  0.057903405            0   0.77204942    1.4836824    2.3136353   -11.281841 
11460000    1.0261166 3.0605956e-05   0.73994648  0.098125939            0   0.64182054    1.5006955     2.240642    5.3746919 
11465000    1.0069438 2.4440836e-05   0.77982013  0.094718695            0   0.68510144    1.4726554    2.2524755    4.7552171 
11470000    1.0841754 -4.8682595e-05   0.67182117  0.013684888            0   0.65813628    1.5856066    2.2574277     -2.72767 
11475000    1.1513925 1.8442851e-06   0.54071759  0.075594131            0   0.46512346    1.6839115    2.2246291    2.4134839 
11480000    0.9945143 5.4915498e-05   0.77639516 0.0063320268            0   0.77006313    1.4544772    2.2308723    7.8542193 
11485000    1.0874204 4.8588127e-05   0.61906567 2.8065973e-06            0   0.61906286    1.5903523     2.209418    7.1848422 
11490000    1.0338382 -1.4371639e-05   0.68385044 0.0093625052            0   0.67448794    1.5119884    2.1958389   0.72418299 
11495000    1.1028475 -1.300973e-05   0.57383886   0.02725104            0   0.54658782    1.6129144    2.1867533   0.85455691 
11500000    1.0423977 -2.0614962e-05    0.6984943  0.043821828            0   0.65467247    1.5245066    2.2230009   0.11202881 
11505000   0.97666892 -3.3849267e-05   0.74506654  0.022322451            0   0.72274409    1.4283783    2.1734448   -1.2927201 
11510000    1.0220733 -1.9012173e-07   0.70391221  0.038375164            0   0.66553705    1.4947821    2.1986943    2.1792259 
11515000    1.0336632 -7.9675879e-05   0.74102461  0.075004778            0   0.66601983    1.5117324     2.252757    -5.906053 
11520000    1.1197977 0.00010142997   0.60382356 0.0042285396            0   0.59959502    1.6377041    2.2415277    12.627957 
11525000    1.1109235 2.7294966e-05     0.630758 0.0099315279            0   0.62082647    1.6247257    2.2554837    5.0504882 
11530000    1.0438856 -9.9724271e-05   0.71288841  0.014604508            0    0.6982839    1.5266827    2.2395711   -7.9721943 
11535000   0.94367012 -5.3023351e-05    0.7975071 0.0030145664            0   0.79449253    1.3801176    2.1776247   -3.2519665 
11540000    1.1385704 1.3007774e-05   0.52093346  0.015626287            0   0.50530717    1.6651593    2.1860927    3.5180888 
11545000    1.0116949 9.8563496e-05   0.71982503  0.052472934            0    0.6673521    1.4796039    2.1994289    12.292331 
11550000    0.9655856 8.1443076e-05   0.81448245  0.028574834            0   0.78590762    1.4121689    2.2266514    10.566422 
11555000    1.2551707 -2.2279371e-05    0.4115918 0.0012004036            0   0.41039139    1.8356872     2.247279 -0.034128624 
11560000   0.98441509 -7.1514626e-05   0.79952412  0.010938977            0   0.78858514    1.4397071    2.2392312   -5.0838665 
11565000     0.968027 6.716293e-05   0.84169334  0.045861888            0   0.79583145    1.4157395    2.2574328    9.1349169 
11570000    1.1432359 0.00011294994   0.60698014  0.011540944            0    0.5954392    1.6719826    2.2789627    13.845036 
11575000    1.1361172 -2.8135124e-05   0.61834766   0.01665335            0   0.60169431    1.6615713     2.279919  -0.60111767 
11580000    1.0902736 -9.8647583e-05   0.62980743  0.028770955            0   0.60103647    1.5945251    2.2243325     -7.87718 
11585000   0.90652596 -6.3040344e-05   0.84334853  0.023273817            0   0.82007471    1.3257942    2.1691427   -4.2861885 
11590000    1.0936648 -1.341137e-07   0.59373243   0.02134961            0   0.57238282    1.5994848    2.1932172     2.179484 
11595000   0.98670189 1.9299814e-05   0.76535239   0.02527569            0    0.7400767    1.4430515    2.2084039    4.1847049 
11600000    1.0817558 5.3918599e-05   0.61591325  0.021012129            0   0.59490112    1.5820679    2.1979811    7.7192457 
11605000   0.95008395 -1.2613749e-05   0.73759587   0.02620825            0   0.71138762    1.3894978    2.1270936    0.8354457 
11610000    1.0184619 6.7204975e-06   0.63102554  0.020281304            0   0.61074423    1.4895005     2.120526     2.808705 
11615000   0.94379082 7.5858841e-05   0.75795331 0.0028576083            0    0.7550957    1.3802941    2.1382474    9.9061927 
11620000    1.1105819 3.5768166e-05   0.58692065 0.0093623218            0   0.57755833     1.624226    2.2111467    5.8738069 
11625000   0.98095808 4.2700184e-05   0.75839673  0.038924057            0   0.71947267    1.4346512    2.1930479    6.5655468 
11630000   0.97483075 6.4662669e-05    0.7984714  0.023144353            0   0.77532705      1.42569    2.2241614    8.8456187 
11635000    1.1053398 3.1541253e-06   0.62346766 0.0030289078            0   0.62043875    1.6165595    2.2400271    2.5630096 
11640000   0.93617938 -4.0962527e-05    0.8287952 0.0051626582            0   0.82363254    1.3691624    2.1979576   -1.9966053 
11645000    1.0042438 2.4573509e-05   0.72555966 0.0016979236            0   0.72386173    1.4687066    2.1942663    4.7105936 
11650000    1.0881932 -3.0727081e-06   0.62678385 0.0026237365            0   0.62416011    1.5914826    2.2182664    1.9036211 
11655000    1.0190432 6.6225774e-06      0.67893 0.0048112623            0   0.67411874    1.4903507    2.1692807    2.8474326 
11660000     1.063066 5.9083148e-05   0.62640104 0.0089949956            0   0.61740604     1.554734     2.181135    8.2312494 
11665000    1.0630022 -4.5248684e-05   0.63294245 0.0090258026            0   0.62391665    1.5546407    2.1875831   -2.4458821 
11670000    1.0566626 2.5240102e-05   0.65299672 0.0034974116            0   0.64949931     1.545369    2.1983657    4.7829522 
11675000    1.0745495 8.8600701e-05   0.64725283            0            0   0.64725283    1.5715286    2.2187814    11.291493 
11680000     1.162853 5.0555584e-05   0.48621693  0.030240868            0   0.45597606    1.7006725    2.1868894    7.3637812 
11685000   0.91595323 -0.00014807163     0.847182   0.07532759            0   0.77185441    1.3395816    2.1867636   -12.975771 
11690000    1.0184569 -8.1669732e-05   0.70439823 0.00047499938            0   0.70392324    1.4894932    2.1938915   -6.1690891 
11695000    1.1430399 2.8448805e-05   0.57930161  0.013255996            0   0.56604561    1.6716958    2.2509974     5.164155 
11700000   0.99006007 5.6605704e-05   0.77230813  0.038298033            0   0.73401009    1.4479629     2.220271     8.016695 
11705000   0.98707464 -3.9860862e-05   0.73444037  0.010507399            0   0.72393297    1.4435967     2.178037   -1.9037152 
11710000   0.98507231 -5.1858876e-06   0.73015269 0.0085146739            0   0.72163801    1.4406682    2.1708209     1.639786 
11715000     1.083501 1.8273749e-05     0.604153  0.012928262            0   0.59122474    1.5846202    2.1887732    4.0600051 
11720000   0.97357053 -2.7258652e-05   0.76248148 0.0046155972            0   0.75786589    1.4238469    2.1863284  -0.60495762 
11725000    1.0240862 5.2862442e-05   0.69594106 9.6958887e-05            0    0.6958441    1.4977261    2.1936672    7.6067812 
11730000    1.0279872 5.6975448e-05   0.68928887            0            0   0.68928887    1.5034313    2.1927201     8.027006 
11735000    1.0258603 4.7900287e-05   0.71744998 0.00068691532            0   0.71676307    1.5003207    2.2177707      7.12276 
11740000   0.99296545 -2.1957541e-05   0.77558134  0.012477164            0   0.76310418     1.452212    2.2277933 -0.020658859 
11745000    1.0903947 -0.00010757288   0.68962109  0.041648279            0   0.64797281    1.5947023    2.2843234     -8.73114 
11750000   0.87476947 -2.1627657e-05   0.96287083  0.047148577            0   0.91572225    1.2793503    2.2422212  0.027549076 
11755000    1.1884674 3.806462e-05   0.53502241  0.010080441            0   0.52494197    1.7381336     2.273156    6.1709731 
11760000    1.0185276 -6.7703299e-06   0.77033301 0.0035351788            0   0.76679783    1.4895965    2.2599296    1.5666478 
11765000   0.96011135 5.7287661e-05   0.85470951 0.0051289829            0   0.84958053    1.4041629    2.2588724    8.1251289 
11770000    1.1067383 -7.0998204e-06   0.62280595 0.0017762134            0   0.62102974    1.6186048    2.2414107    1.5143891 
11775000    1.0979303 -0.00011237508   0.63215911 5.3246502e-05            0   0.63210587    1.6057231    2.2378822   -9.2693255 
11780000   0.99499071 1.5974316e-05   0.77924915            0            0   0.77924915    1.4551739    2.2344231     3.870193 
11785000    1.0811734 5.5416512e-05   0.69341633            0            0   0.69341633    1.5812161    2.2746324    7.9492833 
11790000    1.0842894 -5.6764758e-05    0.6892073            0            0    0.6892073    1.5857732    2.2749805   -3.5377307 
11795000    1.1750102 2.4761418e-05    0.6019576 0.0088192561            0   0.59313834    1.7184524      2.32041    4.8559792 
11800000    1.0513219 9.6296175e-05   0.78170281   0.12160175            0   0.66010106    1.5375582     2.319261    12.179989 
11805000     1.049389 -4.1648521e-05   0.73860787  0.070363096            0   0.66824477    1.5347315    2.2733393   -1.9914692 
11810000    1.0971702 -4.5146709e-05   0.67546751 0.0014121042            0    0.6740554    1.6046114    2.2800789   -2.3429441 
11815000    1.1114721 7.8703703e-06   0.68532193            0            0   0.68532193    1.6255279    2.3108498    3.1167757 
11820000    1.1077243 -4.2735259e-05    0.6744414 2.1799851e-05            0    0.6744196    1.6200468    2.2944882   -2.0816023 
11825000     1.042117 2.2349708e-05   0.73606564 0.0060467905            0   0.73001885    1.5240961    2.2601618    4.5487719 
11830000    1.1881866 1.6740525e-06   0.42911361  0.020221276            0   0.40889233    1.7377229    2.1668365    2.3382595 
11835000    1.0798746 -3.4415609e-05   0.57867814  0.017075424            0   0.56160271    1.5793167    2.1579948   -1.3661636 
11840000   0.97824602 8.2455023e-05   0.73048295  0.019952566            0   0.71053038    1.4306848    2.1611678    10.604562 
11845000    1.0503545 -8.6325332e-05   0.64706892  0.010456745            0   0.63661218    1.5361434    2.1832123   -6.6565017 
11850000    1.0440893 6.5134649e-06   0.66115981  0.002172131            0   0.65898768    1.5269806    2.1881404    2.8551192 
11855000    1.0273314 8.9912251e-05   0.66222352 0.0031983705            0   0.65902514    1.5024722    2.1646957     11.37171 
11860000   0.97360151 -9.5080368e-05   0.74941405 0.00097231518            0   0.74844174    1.4238922    2.1733063   -7.5629234 
11865000    1.0947787 -2.8521326e-05   0.55559696 0.0051276904            0   0.55046927    1.6011139    2.1567109  -0.76387297 
11870000    1.1102397 4.1472191e-05    0.5817191  0.022469179            0   0.55924992    1.6237255    2.2054446     6.452197 
11875000    1.0655625 1.9142501e-05   0.65388664   0.01783716            0   0.63604948    1.5583852    2.2122718    4.1724639 
11880000    1.1142703 1.4049345e-05   0.61703114 0.00067569964            0   0.61635544    1.6296204    2.2466515    3.6853044 
11885000    1.0428183 -3.6957836e-05    0.6953824 0.0059810351            0   0.68940136    1.5251217    2.2205041   -1.5639783 
11890000    1.0716709 -8.9451751e-05   0.68960271  0.080569316            0    0.6090334    1.5673187    2.2569214   -6.9029379 
11895000    1.0568979 -0.00010202157   0.74243586 0.0041412672            0   0.73829459    1.5457132     2.288149   -8.1588599 
11900000    1.2027959 -4.315389e-05   0.55556608 0.00066527683            0    0.5549008     1.759089     2.314655   -2.1043033 
11905000    1.1243422 6.0842199e-05   0.67447457  0.020199919            0   0.65427466    1.6443505    2.3188251    8.5490663 
11910000    1.1009271 5.3626495e-05   0.68711906  0.032937783            0   0.65418127    1.6101059     2.297225    7.7885781 
11915000    1.1297913 -4.8127337e-05   0.61680152  0.046225026            0   0.57057649    1.6523198    2.2691213    -2.659118 
11920000    1.0370343 -9.2700158e-05   0.72637704  0.013608659            0   0.71276838    1.5166627    2.2430397   -7.2494564 
11925000    1.0772279 -7.6958077e-05   0.65930716 7.756993e-05            0   0.65922959    1.5754459     2.234753   -5.6457541 
11930000    1.1110871 2.0615967e-05   0.63165095 0.00020424327            0   0.63144671    1.6249649    2.2566159    4.3676909 
11935000     1.098975 3.1115768e-05   0.64752494 0.00077421569            0   0.64675072     1.607251    2.2547759    5.4410306 
11940000     1.155687 -0.00014939877   0.59650004 0.0019264488            0   0.59457359    1.6901923    2.2866923   -13.011741 
11945000    1.1436024 -8.0593468e-05   0.57702308  0.009384423            0   0.56763866    1.6725185    2.2495416   -6.0032295 
11950000    1.0891127  3.87965e-05   0.65038019  0.012565221            0   0.63781497    1.5928273    2.2432075    6.2159692 
11955000    1.0560446 -0.00010493797    0.6667168 0.0096788858            0   0.65703792    1.5444653    2.2111821   -8.5344658 
11960000    1.0431286 -7.9773313e-05   0.63158863  0.042751216            0   0.58883741    1.5255755    2.1571642   -6.0116231 
11965000    1.0675718 2.4911036e-05   0.59241255   0.01816273            0   0.57424982    1.5613237    2.1537363    4.7046264 
11970000    1.0262146 6.0707461e-05   0.61022584 0.00020616607            0   0.61001967    1.5008389    2.1110647    8.3275087 
11975000   0.98691756 9.6525645e-05   0.63882365 0.0050218493            0    0.6338018    1.4433669    2.0821906    11.966417 
11980000   0.96123804 5.4271537e-05   0.66900646 0.0090311335            0   0.65997533    1.4058106    2.0748171    7.6322225 
11985000    1.0137908 -1.3168856e-06   0.59293385 0.0042226715            0   0.58871118     1.482669    2.0756029    1.9407538 
11990000    1.0900634 1.974282e-05   0.49265991  0.068339244            0   0.42432067    1.5942176    2.0868776    4.1085423 
11995000   0.97179411 6.7081225e-05   0.69101588  0.089256005            0   0.60175988    1.4212489    2.1122648    8.9813822 
12000000    1.0438115 3.0003783e-05   0.59477808  0.012507327            0   0.58227075    1.5265743    2.1213524    5.1937398 
12005000    1.2070774 -4.7495034e-05   0.41932192  0.010406326            0    0.4089156    1.7653507    2.1846727   -2.6788188 
12010000    1.0498563 -6.7039532e-05    0.6150144 0.0096245552            0   0.60538984    1.5354149    2.1504293   -4.7144188 
12015000    1.0285118 -3.1232952e-05   0.62447549 0.0039964691            0   0.62047902    1.5041986    2.1286741   -1.0695803 
12020000    1.0151797 6.9660952e-05   0.62452488 2.9493575e-05            0   0.62449538    1.4847004    2.1092252    9.2425067 
12025000    1.0820323 -2.9346646e-05    0.5215155            0            0    0.5215155    1.5824723    2.1039878   -0.9011088 
12030000    1.1018552 -6.851251e-05   0.47678192            0            0   0.47678192    1.6114632    2.0882452   -4.9274358 
12035000    1.0153586 -2.7019136e-05   0.59864559            0            0   0.59864559     1.484962    2.0836076  -0.68315195 
12040000   0.99096462 -5.5480793e-06    0.6171025            0            0    0.6171025    1.4492858    2.0663883    1.4982649 
12045000   0.98538188 -2.1236859e-05   0.62567645 0.00040606198            0   0.62527039     1.441121    2.0667974  -0.10785695 
12050000   0.91259038 -8.9259055e-05   0.69962095   0.00547217            0   0.69414878    1.3346634    2.0342844   -7.1058428 
12055000    1.0629226 4.7642598e-05   0.47154632  0.028963906            0   0.44258242    1.5545243    2.0260707    6.9046727 
12060000    1.0221036 3.2167524e-05   0.54015692  0.015981057            0   0.52417587    1.4948265    2.0349834    5.3289379 
12065000   0.99950371 3.2770143e-05   0.58900343 0.0087683542            0   0.58023508    1.4617742    2.0507776    5.4064403 
12070000    1.0344598 8.2594889e-05   0.54350385  0.041405273            0   0.50209858    1.5128975    2.0564013    10.514118 
12075000    1.0712245 2.6850191e-05   0.47023825  0.029304662            0   0.44093358    1.5666658     2.036904    4.7863636 
12080000    1.0461128 -0.00012785447   0.49578826 0.0051143499            0   0.49067391      1.52994    2.0257283    -11.06657 
12085000    1.0222587 -6.8602917e-05   0.54466904  0.012324121            0   0.53234492    1.4950534    2.0397224   -4.9852163 
12090000   0.99588518 1.7968948e-05   0.62737549 0.0097765792            0   0.61759891    1.4564821    2.0838576    3.9238778 
12095000   0.98295619 1.157713e-05   0.63892497  0.026378025            0   0.61254694    1.4375734    2.0764984    3.2619965 
12100000   0.96110095 7.5159289e-05   0.70158224  0.086478474            0   0.61510377    1.4056101    2.1071924    9.8035035 
12105000   0.98091328 1.1560316e-05    0.6288083  0.090530237            0   0.53827806    1.4345857     2.063394    3.2471704 
12110000    1.0703847 -5.016633e-05   0.48999736 0.0019927165            0   0.48800465    1.5654376     2.055435   -3.0815972 
12115000    1.0620095 -1.7950844e-05   0.51122204            0            0   0.51122204    1.5531889     2.064411   0.22624454 
12120000   0.94117141 1.526707e-05   0.71406629 0.0016369419            0   0.71242935    1.3764632    2.0905295    3.6538774 
12125000    1.0916309 6.2347138e-05   0.49229759 0.0058992855            0    0.4863983    1.5965101    2.0888077    8.4731547 
12130000    1.1307018 8.3948332e-06   0.45675677  0.023320965            0   0.43343581    1.6536514    2.1104082    2.9700391 
12135000   0.97146293 -2.4431778e-05   0.67567602  0.016451401            0   0.65922462    1.4207645    2.0964406  -0.40537348 
12140000    1.0896425 -3.7028067e-05   0.51171687  0.031797953            0   0.47991892    1.5936022    2.1053191    -1.686355 
12145000   0.97716511 -1.2323895e-07   0.68967352  0.021946846            0   0.66772667     1.429104    2.1187775    2.1061578 
12150000    1.0679691 -0.00011133003     0.538677 0.0059528034            0    0.5327242    1.5619048    2.1005818   -9.2996136 
12155000   0.95091465 -3.9995819e-05   0.71103141 0.0010427776            0   0.70998863    1.3907127    2.1017441   -1.9938277 
12160000   0.96931104 -1.4240941e-05   0.64380918 0.00043958328            0    0.6433696    1.4176174    2.0614266   0.60315417 
12165000    1.0305592 1.2343377e-05   0.56635388 0.0037404354            0   0.56261344    1.5071928    2.0735467    3.3375084 
12170000   0.96241056 -3.4266292e-05   0.65853253  0.010060277            0   0.64847225    1.4075254     2.066058   -1.4428104 
12175000    1.0494959 2.4277359e-05   0.52626637 0.0067038408            0   0.51956253    1.5348878    2.0611541    4.5471557 
12180000    1.0099454 1.0656316e-05   0.59265984 0.0036894541            0   0.58897039    1.4770451     2.069705    3.1609118 
12185000    1.0897136 3.6147346e-05   0.47429682 0.0068693514            0   0.46742747    1.5937061     2.068003    5.7694912 
12190000     1.019855 5.0835259e-06   0.52256843   0.01963985            0   0.50292858     1.491538    2.0141064    2.5346595 
12195000   0.89850229 -3.7351267e-05   0.68503625   0.07679102            0   0.60824523    1.3140596    1.9990958   -1.8256739 
12200000   0.91355957 -3.5535041e-05   0.63113226  0.033634791            0   0.59749747    1.3360809    1.9672131   -1.6715751 
12205000    1.0876473 2.7088873e-05   0.40206046 0.0077601774            0   0.39430028    1.5906841    1.9927446    4.7666452 
12210000   0.96917627 -1.1270723e-05   0.58815668  0.028339842            0   0.55981684    1.4174203     2.005577   0.85145496 
12215000   0.97652953 -9.0663482e-05   0.54242641  0.025261229            0   0.51716518    1.4281744    1.9706008   -7.3133397 
12220000   0.94357219 -5.2997625e-05   0.57068018 0.0065311069            0   0.56414907    1.3799743    1.9506545   -3.4763023 
12225000   0.90430337 -4.0758821e-06   0.58297465  0.026678668            0   0.55629599    1.3225437    1.9055183     1.488148 
12230000   0.87015599 2.2472976e-05   0.64774889  0.075640469            0   0.57210842    1.2726031     1.920352    4.2215848 
12235000   0.98976694 -1.8830615e-05   0.47626982  0.024880194            0   0.45138962    1.4475341     1.923804 -0.0044510006 
12240000    1.0213151 -7.4319701e-06   0.41735705 0.0018619707            0   0.41549508    1.4936734    1.9110304    1.1499967 
12245000   0.92734016 9.0547701e-05   0.54778442 0.00022963047            0   0.54755479     1.356235    1.9040194    11.176104 
12250000   0.93779793 -1.2025214e-05   0.53898534 0.0028624289            0   0.53612291    1.3715295    1.9105148   0.67913288 
12255000   0.90112093 -8.5551774e-05   0.58598178  0.013278354            0   0.57270342    1.3178894    1.9038711   -6.8566306 
12260000   0.91000719 -3.216825e-05   0.59019923  0.010026443            0   0.58017279    1.3308855    1.9210847   -1.3729441 
12265000   0.88885934 5.2908619e-05   0.58121273 0.0050719685            0   0.57614076    1.2999568    1.8811695    7.2990121 
12270000   0.97504215 0.00010498135   0.41878975  0.014715185            0   0.40407457    1.4259991    1.8447889    12.594879 
12275000    1.0250883 6.3365609e-05   0.38250746 0.0093153327            0   0.37319213    1.4991917    1.8816991    8.3703375 
12280000   0.94538242 -1.8250366e-05   0.48517814 0.00035055432            0   0.48482759    1.3826218    1.8677999 -0.0010375168 
12285000   0.91785286 -3.7301958e-05   0.51749407 0.0027335281            0   0.51476054    1.3423598    1.8598539   -1.9598666 
12290000    1.0806584 -3.4855361e-06   0.37563127 0.0093871085            0   0.36624416    1.5804629    1.9560942    1.5991753 
12295000   0.98646727 5.0351083e-05   0.49586392 0.0049034788            0   0.49096044    1.4427084    1.9385723    7.0945232 
12300000   0.98959982 4.0429439e-05   0.50767228  0.014612321            0   0.49305996    1.4472897     1.954962    6.0949366 
12305000    1.0187034 -1.3166424e-05    0.4702583  0.032141717            0   0.43811659    1.4898538    1.9601121   0.61187032 
12310000   0.93033798 6.6452368e-05   0.58994027  0.059979398            0   0.52996087    1.3606193    1.9505596     8.755282 
12315000   0.91006785 6.1411666e-05   0.60418115   0.05854834            0   0.54563281    1.3309742    1.9351554      8.22371 
12320000    1.0531575 -2.0920211e-05   0.38265488  0.027600944            0   0.35505393    1.5402429    1.9228978  -0.21933179 
12325000   0.95026005 -8.9044445e-05   0.53963157  0.019396843            0   0.52023473    1.3897553    1.9293869   -7.1887643 
12330000     1.060706 -1.8708466e-05   0.41434124 0.0063956069            0   0.40794563    1.5512825    1.9656237  0.049876773 
12335000   0.92441591 5.3588973e-05   0.58931342  0.014721833            0   0.57459159    1.3519583    1.9412717    7.4287825 
12340000    1.0037521 -2.3367253e-05   0.42261604   0.02808455            0   0.39453149    1.4679874    1.8906034  -0.50220325 
12345000   0.98293831 2.2820832e-05   0.47361515  0.010443946            0   0.46317121    1.4375473    1.9111624    4.2480156 
12350000   0.97260859 4.7562163e-05   0.49595373 0.0056103421            0   0.49034339    1.4224401    1.9183938    6.7887592 
12355000   0.95391383 4.5310312e-05   0.47947871   0.05320356            0   0.42627515     1.395099    1.8745777    6.5143536 
12360000    0.8861303 4.7881126e-05    0.5528382  0.025422104            0    0.5274161    1.2959656    1.8488038     6.751831 
12365000   0.92284948 -1.2434029e-05    0.4762247 0.0016143075            0    0.4746104    1.3496674    1.8258921   0.55264745 
12370000   0.85163979 -2.7340925e-05   0.54276381            0            0   0.54276381    1.2455232     1.788287   -1.0114237 
12375000   0.82138409 -1.870206e-05   0.53284896   0.01114461            0   0.52170435    1.2012742    1.7341232  -0.18096773 
12380000   0.82752732 -1.5487169e-05   0.52814806  0.058719775            0   0.46942829    1.2102587    1.7384068   0.15252065 
12385000   0.91720792 -1.2284739e-05   0.41432026  0.026317501            0   0.38800276    1.3414166    1.7557369    0.4977796 
12390000   0.85356187 2.0168905e-06   0.49789803  0.054707432            0    0.4431906    1.2483342    1.7462323    1.9527619 
12395000   0.85977457 2.6003616e-05   0.47777258  0.059657903            0   0.41811468    1.2574203    1.7351929    4.3979631 
12400000    0.8716899 -2.8580765e-05   0.49113909  0.056123399            0   0.43501569    1.2748465    1.7659856   -1.1606848 
12405000   0.92490111 -9.1542199e-05   0.41280556  0.012807194            0   0.39999837    1.3526679    1.7654734   -7.6084477 
12410000    0.9365401 -1.8249926e-05   0.40484881  0.034133243            0   0.37071557    1.3696899    1.7745387 -0.094253757 
12415000   0.96889171 6.6230777e-05   0.40501629  0.017632412            0   0.38738388    1.4170041    1.8220204     8.604052 
12420000   0.98056101 4.9381748e-05   0.41572248            0            0   0.41572248    1.4340705     1.849793    6.9064839 
12425000   0.98141891 6.9151603e-05   0.44300527 0.0052945593            0   0.43771071    1.4353252    1.8783304    8.9594545 
12430000    1.0289405 -1.1607335e-05   0.39994753  0.036405564            0   0.36354196    1.5048255     1.904773   0.71618197 
12435000    0.9830427 -7.7660805e-05   0.45278431 0.0066389176            0   0.44614539    1.4376999    1.8904843   -6.0619822 
12440000    1.0248336 1.4749018e-05   0.39194857 0.0029857804            0   0.38896279    1.4988191    1.8907677    3.4010671 
12445000    1.0818359 2.142945e-05   0.33923426 0.0083545193            0   0.33087974    1.5821849    1.9214192    4.1157949 
12450000   0.91574486 -2.9551918e-06    0.5556182   0.03717553            0   0.51844267    1.3392769     1.894895    1.5922834 
12455000   0.99776276 7.0915505e-05   0.40299737  0.010263852            0   0.39273352     1.459228    1.8622254    9.1239731 
12460000    1.0101864 8.0985446e-05   0.39115142 0.0083743676            0   0.38277705    1.4773975     1.868549    10.161459 
12465000   0.95895708 2.0366964e-05    0.4649277   0.03530172            0   0.42962598    1.4024747    1.8674024    3.9529795 
12470000   0.92655408 -6.4680336e-06   0.47684765  0.034980665            0   0.44186699    1.3550853     1.831933    1.1696064 
12475000   0.92255897 -7.8141111e-07   0.47898128  0.022869992            0   0.45611129    1.3492425    1.8282238    1.7482073 
12480000    0.8739154 3.777844e-05    0.5393239 0.0063621358            0   0.53296176    1.2781013    1.8174252    5.6859374 
12485000    1.0782021 3.8708535e-05   0.25739071 0.0017074958            0   0.25568322    1.5768706    1.8342614    5.7980153 
12490000   0.93741064 -2.7821109e-06   0.48283218            0            0   0.48283218    1.3709631    1.8537952    1.5689071 
12495000    0.9856598 -5.5997876e-05   0.42701092            0            0   0.42701092    1.4415275    1.8685384   -3.8656441 
12500000   0.91640048 -0.00011356957   0.48091803 0.00034541049            0   0.48057262    1.3402357    1.8211537   -9.8083701 
12505000   0.96416883 -0.00013671905   0.42055333    0.0125555            0   0.40799783    1.4100969    1.8306502    -12.16938 
12510000    1.0471356 2.0856699e-05   0.33693474  0.040019506            0   0.29691523    1.5314358    1.8683705    4.0040965 
12515000    1.0014769 0.00011103174   0.41680268  0.030543919            0   0.38625876    1.4646599    1.8814626    13.251113 
12520000   0.92228124 1.2431901e-05   0.56861386  0.014402528            0   0.55421133    1.3488363    1.9174502    3.1904769 
12525000    1.0441714 6.2854537e-05    0.3928325  0.011685237            0   0.38114726    1.5271007    1.9199332    8.3562378 
12530000    1.0251988 1.3282277e-05   0.41707086 0.00021996087            0    0.4168509    1.4993532    1.9164241    3.2765292 
12535000   0.99684401 2.736051e-05   0.50604276  0.021219719            0   0.48482304    1.4578844    1.9639271    4.7656433 
12540000   0.92703989 -2.3435771e-06   0.59996383  0.034038072            0   0.56592576    1.3557958    1.9557597    1.7157774 
12545000    1.0508566 1.6377804e-05   0.39603098  0.070423494            0   0.32560748    1.5368777    1.9329087    3.6099959 
12550000   0.89953147 6.3724909e-05   0.59032748  0.075208213            0   0.51511927    1.3155648    1.9058923    8.4313229 
12555000    1.0535231 1.2635949e-05   0.35683264  0.026542319            0   0.33029032    1.5407776    1.8976102    3.1915313 
12560000   0.90339004 -9.3320476e-05    0.5383469  0.011744938            0   0.52660196    1.3212079    1.8595548   -7.6964619 
12565000    1.0798412 -5.3386143e-05   0.29113412  0.005599491            0   0.28553463    1.5792678    1.8704019   -3.5963391 
12570000    0.9166385 3.901618e-05   0.50114606  0.026514166            0   0.47463189    1.3405838    1.8417299    5.8369867 
12575000   0.99766293 5.9697235e-05   0.38546856  0.088021683            0   0.29744687     1.459082    1.8445506    7.9575475 
12580000   0.87735866 5.5914625e-07   0.58015668   0.10270753            0   0.47744915     1.283137    1.8632937    1.9205503 
12585000   0.92167531 8.7378707e-06    0.5052839  0.052772477            0   0.45251142    1.3479501     1.853234     2.747992 
12590000   0.93615713 7.5858528e-05   0.46904201  0.081898568            0   0.38714344    1.3691298    1.8381718    9.6060851 
12595000   0.94681928 -6.5488177e-06   0.41986409   0.11556016            0   0.30430393    1.3847232    1.8045873    1.1339884 
12600000   0.94737012 -4.5610649e-05   0.46221802  0.011790875            0   0.45042715    1.3855288    1.8477468   -2.8227837 
12605000   0.96575012 7.7455869e-05   0.41234123            0            0   0.41234123    1.4124095    1.8247508    9.7562317 
12610000   0.87404421 9.3708682e-05   0.56479628            0            0   0.56479628    1.2782897    1.8430859    11.438855 
12615000    1.0331642 -6.1722715e-06   0.37534477  0.019774192            0   0.35557057    1.5110026    1.8863474    1.2543068 
12620000   0.87758215 -2.7371225e-05   0.60060334  0.066391105            0   0.53421223    1.2834639    1.8840672  -0.91874624 
12625000    1.0059511 2.5583693e-05   0.38351997   0.03738613            0   0.34613383    1.4712035    1.8547235    4.4744936 
12630000   0.89192072 -2.0086949e-05   0.57631572  0.053882843            0   0.52243287     1.304434    1.8807498  -0.17615382 
12635000    1.0747135 7.8465282e-06    0.3430966  0.029113746            0   0.31398286    1.5717685    1.9148651    2.7183496 
12640000   0.96601272 1.0904941e-05   0.51784015  0.050612535            0   0.46722762    1.4127936    1.9306338    3.0472997 
12645000    1.0752737 2.0160426e-05   0.35586794  0.021582706            0   0.33428523    1.5725877    1.9284557    3.9928832 
12650000   0.94533745 4.5016159e-05   0.53484653  0.028690853            0   0.50615567     1.382556    1.9174025    6.5270573 
12655000    1.0257177 -1.0007045e-05   0.41465872 0.0016348601            0   0.41302386    1.5001121    1.9147708   0.89004941 
12660000    1.0131341 -2.4859183e-05   0.41277596            0            0   0.41277596    1.4817086    1.8944845  -0.65109583 
12665000    1.0059169 -1.3996076e-05   0.43363668 9.9634034e-05            0   0.43353705    1.4711535    1.9047902   0.47159204 
12670000    1.0212614 -2.3244855e-05   0.42351033  0.023970249            0   0.39954009    1.4935948    1.9171051  -0.46316801 
12675000   0.95073725 -8.4319942e-05   0.52266584  0.049985984            0   0.47267986    1.3904532    1.9131191    -6.721243 
12680000   0.90189665 -8.8830312e-05   0.58493554  0.043763332            0   0.54117221    1.3190238    1.9039594   -7.1922646 
12685000     1.100787 9.4388258e-05   0.29385779  0.008844284            0   0.28501351    1.6099009    1.9037587    11.569116 
12690000   0.95986658 0.00010395933   0.50974487 0.0033648785            0   0.50637999    1.4038049    1.9135497    12.558985 
12695000    1.0253289 -4.1617618e-05   0.41823741  0.018005464            0   0.40023195    1.4995435    1.9177809   -2.3438631 
12700000   0.93392954 -0.00010367643   0.55827386  0.022809548            0   0.53546431     1.365872    1.9241458   -8.6923203 
12705000   0.94299238 -8.7989328e-06   0.55767967 0.0070106249            0   0.55066904    1.3791264     1.936806    1.0357953 
12710000    1.0810076 4.0657959e-06   0.34328641  0.040965267            0   0.30232114    1.5809736      1.92426    2.3405975 
12715000   0.88082512 1.3828292e-05    0.6595766  0.082842896            0    0.5767337    1.2882067    1.9477833    3.3638004 
12720000    1.0134682 6.5071207e-05   0.42473121 0.0055887509            0   0.41914246    1.4821972    1.9069284      8.57022 
12725000   0.99293301 3.7741822e-05   0.47722803 0.00073240634            0   0.47649562    1.4521645    1.9293925    5.7941551 
12730000   0.96742278 -2.1954688e-05   0.51467852  0.017617478            0   0.49706104    1.4148558    1.9295343  -0.31862574 
12735000   0.89441143 -6.2609721e-05   0.55557926  0.030671065            0    0.5249082    1.3080767     1.863656   -4.5475794 
12740000   0.82685373 -9.3916039e-05   0.62850132  0.030313144            0   0.59818818    1.2092736    1.8377749   -7.7792275 
12745000   0.98627362 2.3003015e-05   0.41654423  0.075501037            0   0.34104319    1.4424252    1.8589694    4.2144781 
12750000    0.9145705 9.0859801e-05   0.54007905  0.040603145            0   0.49947591    1.3375593    1.8776384    11.181682 
12755000    1.1077627 5.5488495e-05    0.3423452  0.003618205            0     0.338727     1.620103    1.9624482    7.6444701 
12760000   0.99761702 -2.2724142e-05   0.48739186 0.00075271094            0   0.48663915    1.4590149    1.9464068  -0.38054535 
12765000   0.94766563 -0.00010580017   0.54591644 0.00051720855            0   0.54539923     1.385961    1.9318774   -8.9020603 
12770000    1.0094071 -7.3363146e-05   0.43620905  0.037797404            0   0.39841164    1.4762578    1.9124669   -5.5999193 
12775000   0.86046683 8.9871712e-06   0.62750787  0.046658066            0   0.58084981    1.2584327    1.8859406    2.8062269 
12780000    0.9671213 3.2489393e-05   0.50162264 0.0049514617            0   0.49667118    1.4144149    1.9160375    5.2429513 
12785000   0.99886253 -1.2843819e-05    0.4593872  0.021821475            0   0.43756573    1.4608364    1.9202236   0.60501656 
12790000    1.0153035 -4.8168201e-05   0.43628537  0.058823265            0    0.3774621    1.4848813    1.9211667   -3.0112571 
12795000   0.91046328 -1.763447e-05   0.57440369    0.0558531            0   0.51855059    1.3315526    1.9059562    0.1001865 
12800000   0.89990911 1.6297175e-05    0.6233005  0.071014122            0   0.55228638    1.3161171    1.9394176    3.6082483 
12805000   0.98915024 -3.2913409e-05   0.48538477  0.026079931            0   0.45930484    1.4466322     1.932017   -1.4383161 
12810000   0.95916953 -5.899652e-05   0.57650183  0.008496163            0   0.56800566    1.4027854    1.9792873   -4.0619564 
12815000    1.0505326 -3.2640642e-05   0.47209168  0.010282497            0   0.46180918     1.536404    2.0084957   -1.3339061 
12820000    1.0356726 -2.5899684e-07   0.48175355  0.021230823            0   0.46052272    1.5146712    1.9964247    1.9699034 
12825000    1.0540411 -9.4242157e-06   0.47325568  0.030219584            0    0.4430361     1.541535    2.0147907     1.049751 
12830000    1.0719382 1.7568464e-05   0.44461388  0.032470516            0   0.41214336    1.5677096    2.0123234    3.8113341 
12835000    1.0167781 6.2889584e-05   0.59025722   0.11338129            0   0.47687594     1.487038    2.0772952    8.5171887 
12840000    1.0055817 4.6640483e-05   0.58164755  0.036133151            0    0.5455144    1.4706633    2.0523108    6.8282963 
12845000    1.0668571 2.1713568e-05   0.46130316  0.020045335            0   0.44125783    1.5602785    2.0215816     4.245051 
12850000     1.042493 3.9792116e-05   0.47479233 0.0091254495            0   0.46566688     1.524646    1.9994383     6.074151 
12855000   0.98302099 6.9163647e-05   0.56180072  0.036400042            0   0.52540068    1.4376682    1.9994689    9.0818263 
12860000    1.0338994 9.3375152e-05   0.51384932  0.080393036            0   0.43345628    1.5120779    2.0259272    11.587543 
12865000    1.0027147 7.2241557e-05   0.53611392  0.024886707            0   0.51122722    1.4664702    2.0025841    9.4001195 
12870000    1.0099168 -6.9341107e-07   0.52990871 0.0054915419            0   0.52441717    1.4770033     2.006912    1.9359067 
12875000    1.0770567 -3.6920572e-05   0.41729035  0.027166749            0    0.3901236    1.5751954    1.9924857   -1.7881809 
12880000    1.0548527 1.2211478e-05   0.42834039   0.05318906            0   0.37515133    1.5427221    1.9710625    3.2215178 
12885000   0.95574285 -1.9403305e-05   0.59807417   0.02974327            0    0.5683309    1.3977739    1.9958481 0.0089496248 
12890000    1.0503457 -0.00010397646    0.4662339  0.011889081            0   0.45434482    1.5361307    2.0023646   -8.6448252 
12895000   0.99342661 -7.2417495e-05   0.56941944  0.047088275            0   0.52233116    1.4528864    2.0223058   -5.3932456 
12900000    1.0889427 4.9037341e-05   0.46015721  0.027902007            0   0.43225521    1.5925787    2.0527359    7.0741596 
12905000    1.0227151 0.00012865595   0.52518741    0.0412471            0   0.48394031    1.4957209    2.0209083    15.195277 
12910000    0.8656613 7.9437956e-05   0.73944173  0.058077695            0   0.68136404    1.2660297    2.0054714    10.139918 
12915000    1.0342916 5.4282232e-05   0.48624838  0.043787509            0   0.44246087    1.5126515    1.9988999    7.5574004 
12920000    1.0328506 2.7573841e-05   0.47788387  0.070605062            0   0.40727881     1.510544    1.9884279    4.8119892 
12925000    0.9209432 -3.6807825e-05   0.69290365  0.082447763            0   0.61045588    1.3468794    2.0397831   -1.7293382 
12930000     1.020969 -5.4411496e-05   0.49263336  0.014421693            0   0.47821167    1.4931672    1.9858005   -3.5859367 
12935000    1.0830784 2.4757193e-05   0.36309722 0.00015774239            0   0.36293948    1.5840021    1.9470993    4.4822359 
12940000    1.0198437 -6.5666992e-06   0.47138828 0.0014970804            0    0.4698912    1.4915215    1.9629097    1.2904797 
12945000     1.046254 -7.0381677e-05   0.43066732 0.0044076676            0   0.42625966    1.5301464    1.9608138     -5.24627 
12950000   0.97119152 -1.2323773e-05   0.55073381  0.077536571            0   0.47319724    1.4203676    1.9711014   0.70914705 
12955000   0.95470974 5.010828e-05   0.57591755  0.095547091            0   0.48037046     1.396263    1.9721805    7.1032684 
12960000   0.97303857 5.2904148e-05   0.54978038  0.021497497            0   0.52828289    1.4230689    1.9728493    7.3902341 
12965000    1.1013333 -2.5282625e-05   0.41226565  0.017046333            0   0.39521932       1.6107    2.0229656  -0.56597521 
12970000    1.0508668 -1.3179444e-05   0.41642764  0.031044653            0   0.38538299    1.5368927    1.9533203    0.6037453 
12975000    1.0275793 -4.2220721e-06   0.47981103  0.031499739            0   0.44831129    1.5028347    1.9826458    1.5503056 
12980000   0.86910925 -5.3093776e-05   0.69776835 0.0069958084            0   0.69077254    1.2710723    1.9688406   -3.4679621 
12985000   0.96597929 -9.7269634e-06   0.53005561 0.00050894059            0   0.52954667    1.4127447    1.9428003   0.94675926 
12990000   0.93432697 1.4845267e-05    0.5561166   0.01420067            0   0.54191593    1.3664532    1.9225698    3.4427252 
12995000   0.93450339 -5.6470065e-05   0.54676767  0.020732064            0    0.5260356    1.3667112    1.9134789   -3.8690558 
13000000   0.99368758 -6.2523026e-05   0.43082329  0.006261922            0   0.42456137    1.4532681    1.8840914   -4.5182665 
13005000    1.0977257 1.827917e-05   0.26163747 0.0050129358            0   0.25662453    1.6054239    1.8670614    3.7388484 
13010000    1.0092813 -2.0901779e-05   0.36677684  0.023619651            0   0.34315718    1.4760738    1.8428507  -0.29749152 
13015000   0.80849363 -9.0252312e-06   0.62725575  0.043760086            0   0.58349566    1.1824219    1.8096777   0.88549401 
13020000   0.89079146 0.00011622414   0.52406759  0.064763212            0   0.45930438    1.3027825    1.8268501    13.728202 
13025000   0.95505438 6.2858694e-05   0.44619819  0.020222989            0    0.4259752     1.396767    1.8429652    8.2796955 
13030000   0.88298313 -3.0068776e-05   0.51886243 0.0030547717            0   0.51580766    1.2913628    1.8102253   -1.2688174 
13035000   0.90487602 1.1880126e-05   0.48483184 0.0015913454            0   0.48324049    1.3233812     1.808213    3.0247379 
13040000   0.87623507 4.7601933e-05   0.51506676  0.011166446            0   0.50390031    1.2814938    1.7965605    6.6709985 
13045000   0.91716203 -3.2162012e-05    0.5072523  0.010434122            0   0.49681818    1.3413495    1.8486018   -1.4447882 
13050000   0.95602966 -4.0220021e-05   0.48731549 0.0044622229            0   0.48285327    1.3981934    1.8855089   -2.2330213 
13055000   0.99422904 -9.4433961e-06   0.46483902 0.00011749196            0   0.46472153      1.45406     1.918899   0.95189523 
13060000   0.80858962 -3.3387942e-05   0.71731838 0.00056410205            0   0.71675428    1.1825623    1.8998807   -1.5190446 
13065000   0.95428211 2.1907822e-05    0.4771248  0.009025978            0   0.46809882    1.3956376    1.8727624    4.1161234 
13070000   0.96694215 6.8887063e-05   0.50132345  0.038092687            0   0.46323076    1.4141529    1.9154763    8.9695115 
13075000    1.0010239 6.1516615e-05   0.46864172  0.052632023            0   0.41600969    1.4639974    1.9326392    8.2319405 
13080000    1.0244727 7.1186362e-06   0.44627109  0.034022189            0    0.4122489    1.4982914    1.9445625    2.6735108 
13085000   0.92488762 -8.1485224e-05   0.58640541  0.045289329            0   0.54111608    1.3526481    1.9390535   -6.4050334 
13090000    1.0190914 -2.9346131e-05   0.45027634   0.13793598            0   0.31234036    1.4904212    1.9406976   -1.0643463 
13095000   0.98800697 4.7390886e-05   0.50312168  0.035276095            0   0.46784558    1.4449602    1.9480819    6.8009086 
13100000   0.99332907 7.7396652e-05    0.5239026 0.0079355319            0   0.51596707    1.4527438    1.9766464    9.9020636 
13105000    1.0296899 2.9656239e-05   0.46649917  0.010235545            0   0.45626362    1.5059214    1.9724206    5.0092195 
13110000    1.0264786 -1.4817035e-05    0.4438597  0.070886664            0   0.37297303     1.501225    1.9450847   0.42782033 
13115000    1.0161554 9.9998338e-06   0.44699013   0.04023328            0   0.40675685    1.4861272    1.9331173    2.9571003 
13120000    1.0278913 4.829688e-05   0.45069325 0.00085359199            0   0.44983966    1.5032911    1.9539843    6.8995848 
13125000   0.98731787 3.2443788e-06   0.51456123 0.00039596902            0   0.51416526    1.4439524    1.9585136     2.290738 
13130000   0.99948923 1.2337195e-05   0.47220445 0.00024442981            0   0.47196002     1.461753    1.9339574    3.1972862 
13135000    0.9851627 8.5088017e-05   0.49983299 0.0021232002            0   0.49770979    1.4408005    1.9406334    10.653646 
13140000   0.98420359 0.00010324345   0.45552594  0.019841839            0    0.4356841    1.4393977    1.8949237    12.467053 
13145000   0.91135324 2.111643e-06   0.53081131  0.048982863            0   0.48182845    1.3328541    1.8636654    2.0798977 
13150000   0.94418449 -3.9331051e-05   0.50140728  0.033422083            0    0.4679852    1.3808698    1.8822771   -2.1452225 
13155000    0.9534042 1.7079206e-05   0.46763407  0.034862071            0     0.432772    1.3943536    1.8619877    3.6108984 
13160000   0.98163525 2.2094404e-06   0.43063927 0.0088540522            0   0.42178522    1.4356415    1.8662808    2.0925275 
13165000   0.94123718 -1.6429379e-05   0.51051746 0.0017771096            0   0.50874035    1.3765594    1.8870768   0.20470847 
13170000    1.0612025 3.3900339e-05   0.38397022  0.018923597            0   0.36504662    1.5520087    1.9359789    5.4073736 
13175000    1.0502283 8.8681546e-05    0.4108124  0.017618812            0   0.39319359    1.5359589    1.9467713    11.027762 
13180000    0.9624947 5.5578607e-05   0.54254848  0.052602945            0   0.48994553    1.4076485     1.950197    7.6414463 
13185000   0.97193924 -4.3228605e-05   0.52507495  0.053599923            0   0.47147502    1.4214611    1.9465361   -2.4800731 
13190000   0.95778819 -3.7358378e-05   0.54670228 0.0034036793            0    0.5432986    1.4007652    1.9474675   -1.8780304 
13195000    1.0274143 2.5118294e-05   0.45603144   0.03170559            0   0.42432585    1.5025934    1.9586249    4.5307382 
13200000   0.99443901 2.6331206e-06    0.5170168  0.057161619            0   0.45985518    1.4543671    1.9713839    2.2410154 
13205000     0.991897 -7.3835161e-05    0.5288767   0.03399117            0   0.49488553    1.4506494    1.9795261   -5.5811944 
13210000    1.0472995 2.0076205e-05   0.45255043  0.047450201            0   0.40510023    1.5316755     1.984226    4.0400293 
13215000    1.0869175 2.6706273e-06    0.4260998  0.036578698            0    0.3895211    1.5896168    2.0157166    2.2891888 
13220000    1.0604639 -9.8780171e-05   0.51364739   0.04413756            0   0.46950983    1.5509285    2.0645758   -8.0505137 
13225000    1.1166866 7.1215917e-06   0.39726894 0.0063415675            0   0.39092738    1.6331542    2.0304231    2.7596741 
13230000    1.0391643 1.2286949e-05   0.49326558 0.0017964322            0   0.49146914    1.5197778    2.0130433    3.2712269 
13235000    1.0222183 -1.5491671e-05   0.55633545 0.0043460795            0   0.55198937    1.4949942    2.0513297   0.46498253 
13240000    1.0819591 3.6500173e-05   0.47886522 0.0036986378            0   0.47516658    1.5823652    2.0612304    5.7988481 
13245000    1.0614612 3.5335576e-06   0.48940909 0.0064838612            0   0.48292523     1.552387     2.041796    2.4036323 
13250000    1.0256189 -1.748678e-05    0.5379422  0.017298587            0   0.52064361    1.4999677    2.0379099   0.24726358 
13255000    1.1207488 -1.2484906e-05   0.40989602   0.14654815            0   0.26334788    1.6390952    2.0489912    0.7705368 
13260000    1.0288813 -4.4287072e-05   0.51939751  0.025620615            0    0.4937769     1.504739    2.0241365   -2.5108597 
13265000    1.1214472 -1.2160665e-05   0.37042383   0.01441712            0   0.35600671    1.6401166    2.0105404   0.76528829 
13270000   0.98215697 8.842957e-06   0.60325465  0.020503296            0   0.58275135    1.4364046    2.0396592     2.945178 
13275000   0.99545129 -7.4527344e-06   0.56410029  0.063744685            0   0.50035561    1.4558475    2.0199478    1.2567878 
13280000    1.0180883 -5.6107859e-05   0.52046375  0.034533299            0   0.48593045    1.4889542    2.0094179   -3.7360268 
13285000    1.1043615 -3.1648504e-05   0.40437281 0.0041584364            0   0.40021437    1.6151286    2.0195014   -1.2213054 
13290000    1.1111558 7.2148773e-05   0.36483409            0            0   0.36483409    1.6250653    1.9898994    9.3779337 
13295000    1.0978764 6.9843194e-05   0.40415594            0            0   0.40415594    1.6056442    2.0098002    9.1617432 
13300000     1.021367 1.4054706e-05    0.4632905 0.0040763488            0   0.45921415    1.4937492    1.9570397    3.3962416 
13305000   0.98824791 9.9641864e-06   0.53495724  0.016351327            0   0.51860591    1.4453126    1.9802698    3.0006025 
13310000    1.0447278 -3.6064858e-05   0.44337685  0.007076019            0   0.43630084    1.5279144    1.9712913   -1.7217502 
13315000    1.0620167 3.3671836e-05   0.39892223            0            0   0.39892223    1.5531994    1.9521216    5.4001176 
13320000    1.0411605 4.9061456e-05   0.41070135 0.0036297395            0   0.40707161    1.5226973    1.9333986    6.9572917 
13325000    1.0078272 -3.50455e-05   0.52226036 0.0054032978            0   0.51685706    1.4739472    1.9962076   -1.5924516 
13330000    1.0481105 0.0001028167   0.46509971 0.00062220424            0    0.4644775    1.5328616    1.9979613    12.526391 
13335000    1.1247423 3.660389e-05   0.37568472 0.0035321845            0   0.37215254    1.6449356    2.0206204    5.7688588 
13340000    1.0691432 -5.9786041e-05   0.41861465 0.0089741279            0   0.40964052    1.5636219    1.9822366   -4.1398541 
13345000     1.124337 5.3521465e-05   0.34834157 0.0038079043            0   0.34453366    1.6443428    1.9926844    7.4732824 
13350000      1.09254 -5.7804147e-06   0.41639171 4.546948e-05            0   0.41634624    1.5978397    2.0142314    1.4223169 
13355000    1.0207042 -4.0226304e-05   0.50152048 0.00033754495            0   0.50118293    1.4927799    1.9943004   -2.1248731 
13360000    1.1463887 2.8766706e-05   0.35139014 0.0069027106            0   0.34448743    1.6765935    2.0279836    4.9736943 
13365000    1.1770038 -4.9052997e-05   0.29669766 0.0092681781            0   0.28742948    1.7213681    2.0180658   -3.0049611 
13370000     1.139452 1.3801298e-05   0.37126512 0.0023030438            0   0.36896207    1.6664485    2.0377136    3.4509666 
13375000    1.1000702 6.7177402e-06   0.48950002 0.00022090124            0   0.48927912    1.6088526    2.0983526    2.7862492 
13380000    1.0964982 -7.5103906e-05   0.48860651            0            0   0.48860651    1.6036287    2.0922352   -5.5984048 
13385000    1.0805804 1.0016069e-05   0.50676481            0            0   0.50676481    1.5803489    2.0871137    3.1127591 
13390000    1.1235798 1.1045688e-05   0.45299333 2.3887167e-05            0   0.45296944    1.6432355    2.0962288    3.2273073 
13395000    1.1179175 -2.1282231e-05   0.47033979   0.01699884            0   0.45334095    1.6349543    2.1052941 -0.074006313 
13400000    1.2064594 -2.7853756e-05   0.35552948  0.022557745            0   0.33297174    1.7644468    2.1199763  -0.73224825 
13405000     1.124137 3.989095e-05   0.45599749 0.0017810188            0   0.45421647    1.6440504    2.1000479    6.1848812 
13410000      1.09933 -2.4343094e-05    0.4690262 0.0090180784            0   0.46000812    1.6077702    2.0767964  -0.41593648 
13415000     1.131184 1.205089e-05   0.39475796  0.027142608            0   0.36761535    1.6543565    2.0491145    3.2831257 
13420000    1.1038776 9.5023807e-05   0.43550454  0.094448115            0   0.34105642     1.614421    2.0499255    11.780363 
13425000     1.043594 -6.9825115e-05   0.50270601  0.067210256            0   0.43549576    1.5262563    2.0289623   -5.1211295 
13430000    1.0617112 -6.7765576e-05   0.48292895  0.095031233            0   0.38789772    1.5527526    2.0356816   -4.9035134 
13435000    1.0894528 5.1258947e-05   0.42584222 0.0071252293            0   0.41871699    1.5933247     2.019167    7.2680831 
13440000   0.97759139 8.0441804e-05   0.54400664 0.00020004643            0    0.5438066    1.4297274     1.973734    10.210975 
13445000    1.0634789 -5.3545401e-06   0.41303076            0            0   0.41303076    1.5553379    1.9683687    1.4200638 
13450000    1.0275491 -2.574795e-05   0.46482275            0            0   0.46482275    1.5027906    1.9676134  -0.66897676 
13455000     1.138612 7.1569848e-06    0.3168204            0            0    0.3168204      1.66522    1.9820404    2.7149157 
13460000    1.0669143 7.7671478e-06   0.43775114 0.00028315378            0   0.43746798    1.5603621    1.9981133    2.7934692 
13465000    1.0803162 -2.9420547e-05    0.4294019 3.5005968e-05            0    0.4293669    1.5799624    2.0093643   -1.0032997 
13470000    1.0975463 -2.9140329e-05   0.39626833            0            0   0.39626833    1.6051615    2.0014298  -0.98253992 
13475000    1.0724285 -1.0601053e-05   0.40876968 0.0020044183            0   0.40676526    1.5684266    1.9771963   0.89164847 
13480000    1.0996151 -4.7783571e-05   0.40006184  0.014909434            0   0.38515241     1.608187    2.0082489   -2.8847888 
13485000    1.0393501 -5.7879795e-06   0.47029544  0.032549427            0   0.43774601    1.5200496     1.990345    1.3976559 
13490000    1.0751665 3.3259901e-05   0.43958091  0.035072494            0   0.40450842     1.572431    2.0120119    5.4178257 
13495000    1.0321406 -4.2557736e-05   0.46815646 0.0077196614            0    0.4604368    1.5095056    1.9776621   -2.3802501 
13500000     1.047602 -6.1015572e-05   0.41419706 2.5690016e-05            0   0.41417137    1.5321179     1.946315   -4.3016796 
13505000   0.97516619 -6.5702416e-05   0.52489832  0.016438873            0   0.50845945    1.4261806    1.9510789   -4.7768485 
13510000    1.0541211 -3.1421649e-05   0.46440029  0.062384129            0   0.40201616    1.5416521    2.0060524   -1.2115244 
13515000    1.1012808 -2.467006e-05   0.41416493  0.027311827            0   0.38685311    1.6106232    2.0247881  -0.50142605 
13520000    1.0756769 -1.6277805e-05   0.45617277  0.022572721            0   0.43360005    1.5731775    2.0293503   0.36250312 
13525000    1.1720698 8.3760733e-07   0.33987098  0.012448655            0   0.32742233     1.714152     2.054023     2.139794 
13530000    1.0400795 4.9216831e-05   0.54398438 0.0056554284            0   0.53832895    1.5211162    2.0651006    7.1049041 
13535000    1.1221377 7.6423452e-05   0.44911314  0.038193673            0   0.41091946    1.6411264    2.0902396     9.916001 
13540000    1.1945683 3.7039112e-05   0.35274958  0.031597593            0   0.32115199    1.7470562    2.0998058    5.8926108 
13545000     1.082444 -2.1052191e-05   0.54249401  0.029571304            0   0.51292271    1.5830743    2.1255683 -0.030176087 
13550000    1.0729097 -4.4394698e-05    0.4940962   0.03821756            0   0.45587864    1.5691304    2.0632266   -2.4827905 
13555000    1.0985965 -6.6591952e-06   0.42448044 0.0081619452            0    0.4163185    1.6066973    2.0311778    1.3492762 
13560000   0.97547071 -1.8333979e-05   0.61202151 0.0051469189            0   0.60687459    1.4266259    2.0386474   0.16124799 
13565000     1.029732 2.6611601e-05   0.50492566  0.039642353            0   0.46528331    1.5059831    2.0109088    4.7359367 
13570000    1.1399481 7.256434e-05    0.3762364   0.04622358            0   0.33001282    1.6671742    2.0434106     9.473999 
13575000    1.0424831 -5.2958353e-05   0.52356384  0.016989724            0   0.50657412    1.5246316    2.0481954   -3.3747399 
13580000    1.0956992 -6.8087302e-05   0.42605765 0.0007365805            0   0.42532107    1.6024601    2.0285178   -4.9436219 
13585000    1.1053363 -7.3501074e-05   0.43590036 0.00087143725            0   0.43502892    1.6165543    2.0524547   -5.4740552 
13590000    1.1876006 5.2702878e-05   0.32775254 0.0090252927            0   0.31872725    1.7368658    2.0646184    7.4613931 
13595000    1.0355325 0.00012514611   0.51663439 0.0076319627            0   0.50900243    1.5144663    2.0311007    14.846062 
13600000    1.0172487 0.00013718798   0.50522022 0.0013433633            0   0.50387686    1.4877262    1.9929464    16.040995 
13605000    1.0824094 1.0806483e-05    0.4478876  0.010489835            0   0.43739776    1.5830237    2.0309113    3.1374951 
13610000    1.0744572 5.4106959e-06   0.43834397  0.064192538            0   0.37415143    1.5713937    2.0097377    2.5637929 
13615000    1.0167002 -2.9148127e-06   0.51976703  0.029459953            0   0.49030707    1.4869241    2.0066911    1.7082143 
13620000    1.0009513 -6.6123738e-05   0.52476064  0.017065181            0   0.50769546    1.4638912    1.9886519   -4.7824189 
13625000   0.98657074 -6.3415418e-05   0.54751285  0.029855629            0   0.51765722    1.4428597    1.9903725   -4.5033663 
13630000    1.1218046 -8.8191378e-06   0.35592897 0.0058368868            0   0.35009208    1.6406392    1.9965682    1.0934885 
13635000      1.00768 4.6862777e-05   0.44489119 0.0030232305            0   0.44186796     1.473732    1.9186232    6.7173716 
13640000   0.95038783 2.5657707e-05   0.50941418            0            0   0.50941418    1.3899422    1.8993564    4.5267056 
13645000   0.96373237 -5.6892621e-05    0.5033722            0            0    0.5033722    1.4094586    1.9128308   -3.9129736 
13650000    1.0034155 3.8065954e-05   0.44839629 0.00021208434            0   0.44818421    1.4674952    1.9158914    5.8138452 
13655000    1.0354248 2.8615288e-05   0.42976326 6.4768572e-05            0   0.42969849    1.5143088    1.9440721    4.8742775 
13660000      1.03839 3.6335056e-06   0.44473641            0            0   0.44473641    1.5186453    1.9633817    2.3354527 
13665000    1.0359956 1.4017292e-05   0.44618874 0.0095957005            0   0.43659304    1.5151436    1.9613323    3.3967031 
13670000    1.0261722 -5.532741e-05   0.42506092  0.054142314            0    0.3709186    1.5007769    1.9258378    -3.739689 
13675000    1.0564791 6.4267418e-06    0.3366698  0.039272911            0   0.29739689    1.5451006    1.8817704    2.5398688 
13680000    1.0232806 1.5393959e-05   0.39505155  0.038365629            0   0.35668592    1.4965479    1.8915995    3.4679409 
13685000    1.0827595 -3.50976e-05    0.3605896  0.010458238            0   0.35013136    1.5835358    1.9441254   -1.6498689 
13690000    1.0576923 -2.4296637e-05   0.43417318 0.0043957455            0   0.42977744     1.546875    1.9810482  -0.50692743 
13695000     1.091442 -1.6099827e-05   0.36862267 0.0021248816            0   0.36649779     1.596234    1.9648566   0.31623436 
13700000     1.025289 -2.0098116e-05   0.45555019 0.00063110458            0   0.45491909    1.4994852    1.9550354   -0.1030117 
13705000     1.035933 -4.3549413e-06     0.463008 0.00032572437            0   0.46268228    1.5150521    1.9780601    1.5321141 
13710000     1.069168 5.708659e-06   0.40080577 0.0064792495            0   0.39432652    1.5636582     1.964464    2.5490307 
13715000    1.0324426 6.8182743e-05    0.4959986  0.010777101            0    0.4852215    1.5099473    2.0059459    8.9878588 
13720000    1.1619761 0.00011260042   0.32957367 0.0049031266            0   0.32467055      1.69939    2.0289637    13.559246 
13725000    1.1178694 2.253019e-05   0.39948475  0.022687133            0   0.37679761    1.6348841    2.0343688    4.3414603 
13730000    1.0364072 -2.0121121e-05   0.52194024  0.058579275            0   0.46336096    1.5157455    2.0376858  -0.02271704 
13735000    1.1474052 3.529053e-06   0.36704852 0.0073258406            0   0.35972268    1.6780801    2.0451286    2.4065036 
13740000    1.1253801 9.1238327e-06   0.38057421 0.0037073906            0   0.37686682    1.6458683    2.0264425     2.960723 
13745000    1.1374659 2.8956753e-05   0.40318893 0.0058699739            0   0.39731896    1.6635438    2.0667328    5.0319042 
13750000    1.0781124 5.6580858e-05   0.52843169  0.013957663            0   0.51447403    1.5767394    2.1051711     7.899051 
13755000    1.1080524 0.00011614145   0.51103155  0.024757222            0   0.48627433    1.6205267    2.1315582    14.024443 
13760000    1.1836012 4.4085645e-05   0.36845995 0.0053238155            0   0.36313613    1.7310167    2.0994766    6.6138467 
13765000    1.1189206 -2.283859e-06   0.47661376 0.00013395532            0    0.4764798    1.6364214    2.1130352     1.879168 
13770000    1.1338232 3.9799389e-05    0.4365254  0.018999237            0   0.41752616    1.6582164    2.0947418    6.1701992 
13775000    1.2316666 -3.1366391e-05   0.34562187  0.039969386            0   0.30565249    1.8013125    2.1469343   -1.0649841 
13780000    1.1819224 -9.8689876e-05   0.44933781  0.006368505            0    0.4429693    1.7285616    2.1778994   -7.9279439 
13785000    1.2512961 -4.4652035e-05   0.37661008            0            0   0.37661008    1.8300206    2.2066306   -2.3657378 
13790000    1.1926203 -1.5870897e-05    0.4520614            0            0    0.4520614    1.7442072    2.1962686   0.57108873 
13795000     1.299063 1.8341536e-05   0.30622851            0            0   0.30622851    1.8998797    2.2061082    4.0842815 
13800000    1.2024846 2.6274868e-05    0.3736454            0            0    0.3736454    1.7586337    2.1322791    4.8228255 
13805000    1.1405064 -1.6846657e-05   0.45728422            0            0   0.45728422    1.6679906    2.1252748   0.40017711 
13810000    1.1815093 1.9606107e-05   0.45627686 0.0018097591            0    0.4544671    1.7279574    2.1842342    4.1918995 
13815000    1.1843912 5.8182445e-05   0.41804574  0.016175396            0   0.40187034    1.7321722    2.1502179    8.1081003 
13820000    1.0698007 4.4136359e-05   0.57251018  0.010623512            0   0.56188667    1.5645835    2.1370937    6.6566569 
13825000    1.1103159 3.5276289e-05   0.54017938  0.018331646            0   0.52184774     1.623837    2.1640164    5.7763084 
13830000    1.1537674 -4.7694568e-05   0.47103455 0.0071621251            0   0.46387242    1.6873848    2.1584194   -2.7255044 
13835000    1.1154434  1.48518e-05   0.52010706  0.026260265            0   0.49384679     1.631336    2.1514431    3.6722674 
13840000    1.1035116 4.8309959e-06   0.51118672  0.087384686            0   0.42380203    1.6138858    2.1250725    2.6197665 
13845000    1.1502684 2.4152175e-05    0.3979369  0.076113701            0    0.3218232    1.6822675    2.0802044    4.5533871 
13850000    1.1233169 4.8474919e-05   0.45669552  0.031394827            0   0.42530069     1.642851    2.0995466    7.0633782 
13855000    1.1938787 -1.4396846e-05   0.32784524  0.022321164            0   0.30552408    1.7460475    2.0738928   0.59965575 
13860000    1.0940126 -1.0984653e-05    0.4402092 0.00027593396            0   0.43993327    1.5999935    2.0402027   0.91537422 
13865000    1.0648708 5.6473658e-05   0.45782492 0.0032570856            0   0.45456783    1.5573736    2.0151985    7.7981011 
13870000    1.0359248 5.5598295e-05    0.5029202 0.0069519208            0   0.49596827    1.5150401    2.0179603    7.7112256 
13875000    1.0851519 -7.3986795e-05   0.39895301  0.015576625            0   0.38337638    1.5870346    1.9859876   -5.5902602 
13880000     1.085694 -2.1403508e-05   0.34617647  0.026513844            0   0.31966262    1.5878275    1.9340039  -0.25771533 
13885000    1.0674119 8.356005e-05   0.39946854  0.027471509            0   0.37199703    1.5610899    1.9605585    10.517108 
13890000    1.0377678 2.4734078e-05    0.4468492  0.013967709            0   0.43288149    1.5177354    1.9645846    4.4973542 
13895000   0.99429757 -4.7145201e-05   0.42356596  0.011895177            0   0.41167078    1.4541602    1.8777261   -2.9499424 
13900000    1.0223206 5.2227951e-05   0.38389102  0.018732548            0   0.36515847    1.4951439    1.8790349    7.2271771 
13905000   0.93885221 6.3302407e-05   0.51624275  0.067054337            0   0.44918842    1.3730714    1.8893141    8.3714806 
13910000   0.92187167 -6.1374956e-05   0.58550641  0.073941769            0   0.51156464    1.3482373    1.9337437   -4.3510518 
13915000    1.0894909 -9.6642832e-06   0.32721482  0.004004846            0   0.32320997    1.5933804    1.9205952   0.93097262 
13920000    1.0716696 3.2494317e-05   0.35495097  0.012246191            0   0.34270478    1.5673167    1.9222677    5.2496857 
13925000    1.0142567 4.8175533e-06   0.39038601  0.018511021            0   0.37187499    1.4833504    1.8737364    2.3670539 
13930000   0.96663919 4.2726164e-05   0.42894923 0.0073009624            0   0.42164827    1.4137098     1.842659    6.2178183 
13935000    1.0303721 4.9112906e-05   0.36038722 3.148956e-05            0   0.36035573    1.5069191    1.8673064    6.8964679 
13940000    1.0457841 5.1317213e-05   0.39228258   0.00196476            0   0.39031782    1.5294593    1.9217418    7.1766245 
13945000    1.0857791 5.9797181e-05   0.34252077  0.027782892            0   0.31473788    1.5879519    1.9304727     8.053704 
13950000    1.0380753 -3.4964479e-06   0.38279636  0.022297442            0   0.36049892    1.5181852    1.9009815    1.5429453 
13955000     1.110326 -5.8529961e-06   0.25250897 0.0076018301            0   0.24490714    1.6238517    1.8763607    1.2770139 
13960000    1.0666604 -4.6895837e-05   0.30261213 0.0004702264            0    0.3021419    1.5599908     1.862603   -2.9395307 
13965000   0.99837422 -7.0575196e-05   0.40915127            0            0   0.40915127    1.4601223    1.8692736   -5.3576265 
13970000   0.93692227 3.2514701e-05   0.48378332            0            0   0.48378332    1.3702488    1.8540322    5.1835375 
13975000    1.1071924 -9.8026943e-06   0.25211199            0            0   0.25211199    1.6192688    1.8713808   0.86758493 
13980000    1.0698607 -3.8263513e-05   0.33531542 0.00018051561            0   0.33513491    1.5646713    1.8999867    -2.018197 
13985000    1.0042253 5.3284747e-05   0.39916532  0.016622573            0   0.38254275    1.4686796    1.8678449     7.324203 
13990000    1.0939692 4.307884e-05   0.26611084  0.032864772            0   0.23324607    1.5999299    1.8660408     6.277314 
13995000    1.0524549 8.5838296e-06   0.34456619 0.0069818555            0   0.33758433    1.5392153    1.8837815    2.7627656 
14000000    1.0482832 -1.8952268e-06   0.34565919            0            0   0.34565919    1.5331142    1.8787734    1.6847021 
14005000    1.0346672 2.5958916e-05    0.3938562 0.00070774399            0   0.39314846    1.5132008     1.907057      4.56525 
14010000    1.0448803 3.0887582e-05   0.35799373 0.0011799879            0   0.35681374    1.5281375    1.8861312    5.0490196 
14015000     1.025172 -6.9134454e-06   0.35948949  0.006448078            0   0.35304141     1.499314    1.8588035    1.1508667 
14020000    0.9937969 1.9891203e-06   0.37528125 0.0080120135            0   0.36726923     1.453428    1.8287092    2.0323951 
14025000    1.0441599 3.3361887e-05   0.28729747 0.00043868587            0   0.28685878    1.5270838    1.8143813    5.2306385 
14030000   0.97724895 -2.3042115e-06   0.37380934 0.0050258627            0   0.36878348    1.4292266    1.8030359    1.5670847 
14035000   0.96403159 -5.1637177e-05    0.3719424  0.034224132            0   0.33771827    1.4098962    1.7818386   -3.5058083 
14040000    0.8372251 -6.5506798e-05   0.49754383  0.044301991            0   0.45324184    1.2244417    1.7219855   -4.9859106 
14045000   0.99034417 -2.338606e-05   0.27469087 0.0052153787            0   0.26947549    1.4483783    1.7230692  -0.67166337 
14050000   0.89933225 -1.6933594e-05   0.38980764 0.0017947659            0   0.38801287    1.3152734    1.7050811 -0.028918952 
14055000   0.93765004 -8.3312827e-05   0.34078314 0.0023090926            0   0.33847405    1.3713132    1.7120963   -6.8191371 
14060000   0.95768181 -7.5832354e-05   0.29123286 0.00080202453            0   0.29043083    1.4006096    1.6918425   -6.0733906 
14065000   0.96948884 3.1909105e-05    0.2868371 0.00044687197            0   0.28639023    1.4178774    1.7047145    4.9722069 
14070000   0.99532714 8.1195995e-05   0.26026218  0.018059023            0   0.24220315    1.4556659    1.7159281    10.030398 
14075000   0.88645761 2.8384068e-05   0.40510487  0.032628931            0   0.37247594    1.2964443    1.7015491    4.6080777 
14080000    0.9722951 1.7923282e-05   0.25055385  0.011661593            0   0.23889226    1.4219816    1.6725354    3.5078795 
14085000   0.92756006 -1.2842067e-05   0.30747249  0.011053143            0   0.29641934    1.3565566    1.6640291   0.34900138 
14090000   0.91979009 1.3590928e-05   0.32724213  0.036466981            0   0.29077515     1.345193    1.6724351    3.0641461 
14095000   0.91469929 4.6764475e-05   0.32424538  0.039954077            0    0.2842913    1.3377477    1.6619931    6.4506753 
14100000   0.81524745 2.6581065e-06   0.44715431  0.066563811            0   0.38059049    1.1922994    1.6394537    1.9116438 
14105000   0.79097849 -4.8912612e-05   0.47822197  0.026901835            0   0.45132013     1.156806     1.635028   -3.3736235 
14110000   0.95065441 -1.7941225e-05   0.30489903  0.025729913            0   0.27916912    1.3903321    1.6952311  -0.14195028 
14115000   0.88446732 4.5216416e-05    0.4205141   0.11924337            0   0.30127073    1.2935335    1.7140476    6.3442086 
14120000   0.98188606 -5.6732725e-06   0.30350996  0.011350935            0   0.29215902    1.4360084    1.7395183    1.1585752 
14125000   0.91924795 -5.5789724e-05   0.40048334  0.075697173            0   0.32478617    1.3444001    1.7448835   -3.9679842 
14130000   0.92801297 -4.2698228e-05   0.39465115  0.045211169            0   0.34943998     1.357219    1.7518701   -2.6204284 
14135000   0.97181088 -5.240384e-05    0.3460462 0.0086557831            0   0.33739041    1.4212734    1.7673196   -3.5988336 
14140000    0.9090611 -5.0929377e-05   0.45519581  0.034739035            0   0.42045677    1.3295019    1.7846977   -3.4304706 
14145000    0.8857324 5.9782391e-06   0.46272819   0.09902137            0   0.36370682    1.2953836    1.7581118    2.3702835 
14150000   0.96589423 3.8803282e-05   0.37318611   0.13388028            0   0.23930583    1.4126203    1.7858064    5.7592625 
14155000    1.0519177 3.849975e-05    0.2497329  0.012425491            0   0.23730741    1.5384296    1.7881625    5.7305369 
14160000    1.0172668 1.5774928e-05   0.33159755 0.0034771183            0   0.32812043    1.4877527    1.8193502    3.4347029 
14165000    1.0363094 3.0207414e-05   0.29508535 0.0030541034            0   0.29203124    1.5156025    1.8106878     4.903927 
14170000   0.94780596 -4.9816801e-05   0.37299846  0.032834056            0   0.34016441    1.3861662    1.7591647   -3.3420757 
14175000   0.88140859 -0.00011126252   0.50353459  0.024860454            0   0.47867414    1.2890601    1.7925947   -9.6006876 
14180000    1.0109846 -1.6892666e-05   0.33289246 0.0089817996            0   0.32391066     1.478565    1.8114574  0.081648444 
14185000    1.0221042 5.1053139e-05   0.33378102   0.02540388            0   0.30837714    1.4948274    1.8286084    7.0564499 
14190000   0.96223143 1.1497511e-05   0.37910043  0.031224701            0   0.34787573    1.4072635    1.7863639     2.963709 
14195000   0.99073989 3.0378675e-05   0.35261898 0.0061592077            0   0.34645977    1.4489571    1.8015761    4.9123524 
14200000    1.0295036 6.3193632e-05   0.32456391 0.0016438602            0   0.32292005    1.5056491     1.830213    8.3012409 
14205000    1.0623311 7.1113382e-05   0.27832261 0.00078717187            0   0.27753544    1.5536592    1.8319819    9.1139922 
14210000   0.94162045 2.7653054e-05   0.43754594 0.0003580042            0   0.43718793    1.3771199    1.8146658    4.6463386 
14215000   0.97517091 -3.8798196e-05   0.37615455 0.0040236092            0   0.37213094    1.4261875     1.802342   -2.1705932 
14220000   0.95520566 -4.4336784e-05   0.37879718   0.00961928            0    0.3691779    1.3969883    1.7757854   -2.7643013 
14225000   0.95226078 -3.2306876e-05   0.37492789  0.020915975            0   0.35401192    1.3926814    1.7676093   -1.5406148 
14230000    1.0045992 1.4654104e-05   0.28992306   0.01301701            0   0.27690605    1.4692264    1.7591494    3.2597296 
14235000   0.92331248 -1.5526456e-05   0.39901002  0.012226524            0    0.3867835    1.3503445    1.7493545    0.1594454 
14240000   0.94155803 -4.6467961e-05    0.3807143  0.038899984            0   0.34181432    1.3770286    1.7577429   -3.0005762 
14245000   0.92308219 -2.1216863e-06   0.40286825  0.019069978            0   0.38379827    1.3500077    1.7528759    1.5356153 
14250000   0.90861761 2.9144009e-05   0.42872079  0.016551638            0   0.41216915    1.3288533     1.757574    4.7419206 
14255000   0.85493345 7.1205638e-05    0.4788462  0.055935728            0   0.42291047    1.2503402    1.7291864    9.0206437 
14260000   0.82372521 7.1055204e-05   0.55319648   0.17001322            0   0.38318327    1.2046981    1.7578946    9.0339475 
14265000   0.82183529 2.0281094e-05   0.54497388  0.095022727            0   0.44995115    1.2019341     1.746908     3.823692 
14270000   0.91810008 4.2576925e-06   0.40951705  0.030736368            0   0.37878068    1.3427214    1.7522384    2.1882261 
14275000   0.91460968 2.7857662e-05   0.40120753  0.025939324            0   0.37526821    1.3376167    1.7388242    4.5914487 
14280000   0.94547695 3.5291681e-05   0.32763072 0.0010563796            0   0.32657434      1.38276    1.7103908    5.3242589 
14285000   0.97695179 2.5953174e-05   0.29027165 0.0063740017            0   0.28389765     1.428792    1.7190636    4.3766687 
14290000   0.93090273 -1.9243046e-05   0.38005651  0.025996547            0   0.35405997    1.3614452    1.7415018  -0.22898618 
14295000   0.88188636 -5.351183e-05   0.44478116  0.062543356            0   0.38223781    1.2897588      1.73454   -3.7450714 
14300000   0.86043636 -2.150107e-05   0.46914526  0.032347642            0   0.43679761    1.2583882    1.7275334  -0.47417613 
14305000   0.91817292 -7.6915203e-06   0.33711447  0.026119328            0   0.31099514    1.3428279    1.6799424   0.89233069 
14310000   0.87641115 6.9275308e-06   0.44035166  0.034406207            0   0.40594545    1.2817513     1.722103    2.4314821 
14315000    0.8578233 -1.1949544e-05   0.45240899  0.027879129            0   0.42452986    1.2545666    1.7069756   0.48334226 
14320000   0.78803257 -4.1636708e-05   0.53634541 0.0067094287            0   0.52963598    1.1524976     1.688843   -2.5747558 
14325000   0.90982191 -1.6107583e-05   0.36419707  0.020101355            0   0.34409571    1.3306145    1.6948116   0.04539511 
14330000   0.84393099 9.6910618e-06   0.47348606  0.039744709            0   0.43374135    1.2342491    1.7077351    2.7000999 
14335000   0.84053954 1.0858854e-05   0.48708974  0.020775389            0   0.46631435    1.2292891    1.7163788    2.8283255 
14340000    1.0000373 1.2905047e-05   0.28394369  0.038133196            0    0.2458105    1.4625545    1.7464982     3.067975 
14345000   0.89616226 1.0720686e-05   0.44928313  0.033785209            0   0.41549792    1.3106373    1.7599204    2.8577187 
14350000   0.89536017 -4.0191139e-05   0.44969067  0.043839939            0   0.40585073    1.3094642    1.7591549   -2.3564177 
14355000    0.8731553 -8.8247709e-05   0.48062871  0.072941702            0   0.40768701    1.2769896    1.7576183    -7.278947 
14360000   0.90912529 -1.8878892e-05   0.47414222  0.080111915            0   0.39403031    1.3295957     1.803738  -0.12946053 
14365000   0.97580994 8.006073e-05   0.37419942  0.036744077            0   0.33745535     1.427122    1.8013215    9.9995402 
14370000   0.91863376 4.1777976e-05   0.43519526  0.014027155            0   0.42116811    1.3435019    1.7786971    6.0567619 
14375000   0.93149559 -3.2813927e-05   0.41022775  0.019975984            0   0.39025177    1.3623123    1.7725401   -1.5876061 
14380000   0.93232782 -3.6443288e-05   0.43528345  0.044165178            0   0.39111827    1.3635294    1.7988129   -1.9329798 
14385000   0.98800673 -5.060574e-05   0.35875905  0.014742057            0     0.344017    1.4449598    1.8037189   -3.3783089 
14390000   0.96496658 -6.4187882e-07   0.40199388  0.020209645            0   0.38178423    1.4112636    1.8132575    1.7475291 
14395000    1.0252788 4.5838117e-05   0.32241471  0.037377999            0   0.28503671    1.4994703     1.821885    6.5157082 
14400000    1.0039748 -3.0774883e-06   0.37223246  0.010912883            0   0.36131958    1.4683131    1.8405456    1.5254108 
14405000   0.94550818 -4.4434204e-05   0.47606921 0.00037047646            0   0.47569874    1.3828057    1.8588749   -2.6911876 
14410000   0.98653202 -3.9837489e-05   0.38997565 0.0096765638            0   0.38029909    1.4428031    1.8327787   -2.2465801 
14415000   0.98473589 -2.5235316e-05   0.42903434   0.10288362            0   0.32615071    1.4401762    1.8692106  -0.71488576 
14420000   0.94890918 2.1374125e-05   0.45389505  0.099923289            0   0.35397176    1.3877797    1.8416747    4.0303851 
14425000   0.93044562 7.0498396e-05   0.42809116  0.063102752            0   0.36498841    1.3607767    1.7888679    9.0079036 
14430000    0.8377266 5.6588428e-05    0.5773787  0.027749764            0   0.54962893    1.2251751    1.8025538    7.5972089 
14435000   0.91414461 6.0926807e-07     0.467158  0.018127361            0   0.44903063    1.3369365    1.8040945    1.8664835 
14440000   0.92669119 4.4625589e-05   0.45744729  0.019216251            0   0.43823104    1.3552859    1.8127332    6.3823935 
14445000    0.9376626 7.9400303e-05   0.44782868 0.0026204656            0   0.44520821    1.3713316    1.8191602    9.9497512 
14450000   0.89588782 6.5519399e-06   0.47624363  0.034141212            0   0.44210242    1.3102359    1.7864796    2.4573982 
14455000   0.91173069 -3.9019205e-06   0.46018973   0.06726404            0   0.39292569    1.3334061    1.7935959    1.3940392 
14460000   0.89175302 -3.4170896e-05   0.44974912 0.0095746045            0   0.44017452    1.3041888    1.7539379   -1.7451619 
14465000    0.9304281 3.1135359e-06   0.35336381  0.010969785            0   0.34239403    1.3607511    1.7141149     2.032941 
14470000   0.79699783 3.7665686e-05   0.52434516  0.022821315            0   0.50152385    1.1656093    1.6899545    5.5469207 
14475000   0.85284713 6.5975613e-06   0.42231122  0.037649924            0   0.38466129    1.2472889    1.6696001    2.3451904 
14480000   0.89325928 -2.673343e-05   0.37902202  0.062104191            0   0.31691783    1.3063917    1.6854137   -1.0520895 
14485000   0.93319417 2.9069501e-05   0.36421831 0.0047266462            0   0.35949166    1.3647965    1.7290148    4.7057317 
14490000   0.90950774 5.2918544e-05   0.39846758 0.0070647257            0   0.39140286    1.3301551    1.7286227    7.1474816 
14495000   0.87273387 -3.2796168e-06   0.41014787 0.0015100535            0   0.40863782    1.2763733    1.6865212    1.3506884 
14500000   0.90712855 -9.6928432e-06   0.38290057            0            0   0.38290057    1.3266755    1.7095761   0.71702891 
14505000   0.85032009 1.928472e-05    0.5152944 6.4298969e-05            0   0.51523011    1.2435931    1.7588875    3.7336428 
14510000   0.91572427 -1.9389567e-05   0.42114046   0.01372528            0   0.40741519    1.3392467    1.7603872  -0.22510448 
14515000    0.8257887 -1.7015172e-05    0.5252631  0.053402023            0   0.47186108     1.207716    1.7329791 -0.0093745675 
14520000   0.88460629 -2.8502549e-05   0.43761856  0.038532516            0   0.39908605    1.2937367    1.7313553   -1.1873058 
14525000    0.8894406 -1.9924896e-05   0.42173763 0.0078271846            0   0.41391045    1.3008069    1.7225445  -0.31776482 
14530000   0.84606869 1.3829461e-06   0.51778716 3.8738311e-08            0   0.51778712    1.2373755    1.7551626    1.8967763 
14535000   0.83080868 2.2369881e-05   0.53071128            0            0   0.53071128    1.2150577     1.745769    4.0364448 
14540000   0.81958718 6.3593352e-05   0.56519401            0            0   0.56519401    1.1986463    1.7638403    8.2757995 
14545000    0.8999238 5.0098564e-05   0.49076154            0            0   0.49076154    1.3161386    1.8069001    6.9369931 
14550000   0.97670703 3.7962338e-05   0.38634363 0.0035341971            0   0.38280943     1.428434    1.8147777    5.7021211 
14555000   0.90760438 -2.2254606e-06   0.49498871  0.030692764            0   0.46429595    1.3273714    1.8223601     1.594473 
14560000   0.96988561 -2.9256253e-05   0.40813266  0.012163849            0   0.39596881    1.4184577    1.8265904   -1.1692499 
14565000   0.94037048 1.0072055e-05   0.43098453  0.017450317            0   0.41353421    1.3752918    1.8062763    2.8376547 
14570000   0.96547754 7.8156731e-06   0.41039382  0.061440725            0   0.34895309    1.4120109    1.8224047    2.6227297 
14575000   0.82566299 -2.3993324e-05   0.61279353  0.057200298            0   0.55559323    1.2075321    1.8203257  -0.63659071 
14580000   0.82013192 1.2269522e-05   0.59161351  0.067360006            0    0.5242535    1.1994429    1.7910564    3.0474555 
14585000   0.89382701 -4.2475084e-06   0.48143789  0.049283081            0   0.43215481     1.307222    1.7886599     1.353715 
14590000   0.79544248 -0.00010269816   0.59976475  0.055246203            0   0.54451855    1.1633346    1.7630994   -8.7531926 
14595000   0.83358695 -8.4776929e-05   0.55998172  0.012266384            0   0.54771533    1.2191209    1.7791026   -6.9020549 
14600000   0.97429501 4.9316369e-05    0.3416651  0.000391885            0   0.34127322    1.4249065    1.7665716    6.8165678 
14605000   0.89456438 0.00011252421   0.41670257 0.0015071671            0    0.4151954    1.3083004     1.725003    13.247482 
14610000    1.0042662 -2.5196547e-05   0.28359001  0.002503938            0   0.28108607    1.4687393    1.7523293  -0.82779711 
14615000   0.83500226 -0.00010115533   0.53496591 0.00059459826            0   0.53437131    1.2211908    1.7561567   -8.6021493 
14620000   0.86961227 5.7164529e-06   0.48354306 0.00048803496            0   0.48305502    1.2718079     1.755351    2.3407158 
14625000   0.94435667 -1.6141394e-05   0.36914198 0.0031132948            0   0.36602868    1.3811216    1.7502636  0.097384869 
14630000   0.86105565 -0.00011598737   0.48998848  0.021324281            0    0.4686642    1.2592939    1.7492824   -10.127824 
14635000   0.81623141 -6.7308285e-05   0.51711717  0.056410805            0   0.46070637    1.1937384    1.7108556   -5.1815128 
14640000   0.79720024 -1.8361266e-05   0.53300649 0.0090421701            0   0.52396432    1.1659054    1.6989118  -0.18128181 
14645000   0.85815935 2.282646e-05    0.4317886 0.0033945945            0   0.42839401     1.255058    1.6868466    4.0242762 
14650000   0.83521744 4.1602294e-05   0.48672739  0.024577698            0   0.46214969    1.2215055    1.7082329    5.9683078 
14655000   0.90106277 -8.4783659e-05   0.40743603  0.014427684            0   0.39300835    1.3178043    1.7252403   -6.9566064 
14660000   0.84154202 -0.00016548756   0.47919548 0.00030199062            0   0.47889349    1.2307552    1.7099507   -15.235976 
14665000   0.90396839 -0.00015446479   0.41771113            0            0   0.41771113    1.3220538    1.7397649   -14.077429 
14670000    0.9117219 -9.2205065e-05   0.38701428 0.0013344156            0   0.38567986    1.3333933    1.7204076   -7.7213911 
14675000   0.84228285 -1.7799146e-05   0.50075514  0.028659568            0   0.47209557    1.2318387    1.7325938 -0.090038692 
14680000    0.9255732 2.9282766e-05     0.411777  0.059574177            0   0.35220282    1.3536508    1.7654278    4.7639831 
14685000    0.9073572 2.6695159e-05   0.46795673  0.090276566            0   0.37768016    1.3270099    1.7949666    4.5285509 
14690000   0.93644051 -2.9099503e-06   0.41436446  0.014474642            0   0.39988981    1.3695443    1.7839087    1.4859298 
14695000   0.98932092 1.5091168e-05   0.32837246            0            0   0.32837246    1.4468818    1.7752543    3.3205899 
14700000   0.91003751 -4.8591017e-05   0.43704494            0            0   0.43704494    1.3309299    1.7679748   -3.2077453 
14705000    1.0054536 -1.8218429e-05   0.32206714            0            0   0.32206714    1.4704759     1.792543 -0.073024106 
14710000   0.93582911 -2.8846348e-05   0.46750421   0.00298766            0   0.46451655    1.3686501    1.8361543   -1.1177118 
14715000   0.99300351 -3.9200825e-05   0.37128892  0.013881321            0    0.3574076    1.4522676    1.8235566    -2.190608 
14720000    1.0143679 1.1481441e-05   0.35842836  0.025556854            0    0.3328715     1.483513    1.8419414    3.0176409 
14725000   0.97691502 -9.525821e-05   0.38177889  0.010890046            0   0.37088884    1.4287382    1.8105171   -7.9439236 
14730000   0.99042178 -7.2528271e-05    0.3718123  0.001193252            0   0.37061904    1.4484919    1.8203041   -5.6065909 
14735000     1.024915 -8.0814003e-05   0.30739035            0            0   0.30739035    1.4989382    1.8063285   -6.4690254 
14740000   0.97382706 2.874769e-06   0.39370101 0.0028623628            0   0.39083864    1.4242221    1.8179231    2.1122994 
14745000   0.94393245 3.840209e-05   0.49123283  0.019954781            0   0.47127805    1.3805012     1.871734     5.804108 
14750000    1.0933841 -3.7832213e-05   0.32985704  0.025719275            0   0.30413777    1.5990742    1.9289312   -1.9450874 
14755000    1.1087884 5.4410821e-05   0.31208483   0.01858835            0   0.29349648    1.6216031    1.9336879     7.505356 
14760000    1.0344698 5.0898393e-05    0.4420818 0.0060128339            0   0.43606897     1.512912    1.9549938    7.1669892 
14765000   0.97599586 -1.2693427e-06   0.55296573  0.014812603            0   0.53815312    1.4273939    1.9803597     1.850379 
14770000   0.99621003 8.0704755e-07   0.55415052  0.058806443            0   0.49534408    1.4569572    2.0111077    2.0937494 
14775000    1.0379465 5.0019896e-05   0.47653388  0.014863822            0   0.46167005    1.5179967    1.9945306     7.116568 
14780000    1.0449219 -3.0637765e-05   0.46961504 0.0024834639            0   0.46713158    1.5281983    1.9978133   -1.1394938 
14785000    1.0631742 -4.2232946e-05   0.42477586  0.016079291            0   0.40869657    1.5548923    1.9796682   -2.3449854 
14790000     1.076733 5.6127738e-05    0.4650402  0.036774467            0   0.42826573     1.574722    2.0397622    7.7872425 
14795000     1.003565 4.6634885e-05   0.57719381  0.063277421            0   0.51391638    1.4677137    2.0449076    6.8203198 
14800000     1.068394 -1.5787297e-05   0.50843233  0.029906585            0   0.47852574    1.5625262    2.0709585   0.45433925 
14805000    1.0961571 5.5865429e-05   0.48167346  0.025602148            0   0.45607131    1.6031297    2.0848032    7.8054231 
14810000     1.174063 3.9371768e-05   0.42734689  0.069312799            0   0.35803409    1.7170671     2.144414     6.176083 
14815000    1.1047494 1.8295332e-05   0.52344357  0.078427637            0   0.44501593     1.615696    2.1391395    4.0125816 
14820000    1.1230233 8.745979e-06   0.50207297 0.0060809823            0   0.49599199    1.6424215    2.1444945    3.0400827 
14825000    1.1794874 -1.6818076e-05   0.39738373  0.019177938            0    0.3782058    1.7250003     2.122384   0.40021306 
14830000    1.1538091 -4.6936332e-05    0.4692342  0.021672759            0   0.44756144    1.6874457    2.1566799   -2.6496005 
14835000    1.1542795 -6.3748061e-05   0.52008257  0.019236891            0   0.50084568    1.6881338    2.2082163   -4.3195851 
14840000    1.1785248 -4.4504486e-06   0.49782151  0.020510561            0   0.47731095    1.7235925     2.221414    1.7656881 
14845000    1.2466417 7.3448785e-05   0.38251859 0.0041593787            0   0.37835921    1.8232135    2.2057321    9.7268877 
14850000    1.1437143 8.3294813e-05    0.5892013 0.0090344291            0   0.58016688    1.6726821    2.2618834    10.791272 
14855000    1.1936879 0.00010150985   0.49817732  0.032460842            0   0.46571648    1.7457686    2.2439459    12.638555 
14860000    1.1955194 5.2190317e-05   0.52421214  0.009058814            0   0.51515332    1.7484471    2.2726592    7.6169477 
14865000    1.1444211 -2.2843091e-05   0.57375381  0.015643151            0   0.55811066    1.6737159    2.2474697  -0.09166277 
14870000    1.1238184 4.2841673e-05   0.54558726  0.014594818            0   0.53099245    1.6435844    2.1891717     6.576159 
14875000    1.1394418 3.8779412e-05   0.48001858 3.1054497e-06            0   0.48001547    1.6664337    2.1464523    6.1174641 
14880000     1.131293 2.3768395e-05   0.44696035  0.027450562            0   0.41950979    1.6545161    2.1014764      4.53536 
14885000    1.0440499 3.0206318e-05   0.57949122  0.050068419            0    0.5294228     1.526923    2.1064143    5.1995413 
14890000    1.0868384 0.00010352462   0.49920607  0.023342147            0   0.47586392    1.5895011    2.0887072    12.689629 
14895000    1.0919569 9.2666373e-05    0.4625806  0.030514386            0   0.43206622    1.5969869    2.0595675    11.548604 
14900000     1.136398 1.8674165e-05   0.41774524 0.0052881401            0    0.4124571    1.6619821    2.0797274    3.9919618 
14905000    1.1570532 4.4153119e-05   0.37849624 0.0069226856            0   0.37157356    1.6921903    2.0706866    6.5919659 
14910000   0.95402832 -2.1346878e-05   0.67591813  0.098860577            0   0.57705755    1.3952664    2.0711845  -0.11473577 
14915000    1.0171714 -6.6324298e-05   0.54450599  0.051168914            0   0.49333707    1.4876132    2.0321192   -4.7594889 
14920000    1.0652132 1.4751873e-05   0.44864103  0.013170064            0   0.43547097    1.5578744    2.0065154    3.5171072 
14925000   0.97831443 2.5047269e-05   0.54356167  0.019001296            0   0.52456037    1.4307849    1.9743465    4.5391869 
14930000   0.98961551 -2.784088e-05   0.53576649  0.014212786            0    0.5215537    1.4473127    1.9830792  -0.86782691 
14935000    1.0320317 -5.1878456e-05   0.49600731 0.0029340954            0   0.49307322    1.5093464    2.0053537   -3.3070002 
14940000    1.0877184 -2.0358947e-05   0.43459716  0.011021477            0   0.42357569    1.5907882    2.0253853 -0.059370883 
14945000    1.1218487 -7.2278908e-05   0.37081151  0.015907964            0   0.35490354    1.6407038    2.0115153   -5.3898448 
14950000    1.0435291 -5.618805e-05   0.48468135  0.027442737            0   0.45723861    1.5261613    2.0108426   -3.7428137 
14955000    1.0383367 5.7325686e-05   0.50815757  0.029766928            0   0.47839065    1.5185675    2.0267251    7.8968753 
14960000   0.98036389 2.9249681e-05    0.6087893  0.026182358            0   0.58260694    1.4337822    2.0425715    5.0377388 
14965000   0.95319252 -2.5993729e-05   0.61231188 0.0093121204            0   0.60299976    1.3940441     2.006356  -0.65540187 
14970000    1.1032476 -7.7450205e-05   0.40022013 0.0083653988            0   0.39185473    1.6134997    2.0137198   -5.9171812 
14975000   0.97852187 -1.1395462e-05   0.60484279  0.021555883            0    0.5832869    1.4310882     2.035931   0.86903567 
14980000    1.0771817 6.1259261e-05   0.51124905  0.024769052            0      0.48648    1.5753782    2.0866273    8.3595755 
14985000    1.0906848 3.4065075e-05   0.46572831 0.0090864947            0   0.45664182    1.5951266    2.0608549    5.5491186 
14990000    1.1048296 -1.0115188e-05   0.48136438 0.0093446696            0   0.47201971    1.6158132    2.0971776    1.0613824 
14995000    1.0915928 -2.6546437e-05   0.53554626  0.011099209            0   0.52444705    1.5964544    2.1320007  -0.58635449 
15000000    1.1243131 -4.2832702e-05   0.53606417  0.039886854            0   0.49617732    1.6443079     2.180372   -2.2056967 
15005000    1.1119219 1.6423269e-06   0.56041086  0.092554572            0   0.46785629    1.6261857    2.1865966    2.3547709 
15010000    1.1011933 7.7556317e-05    0.5862417  0.071504279            0   0.51473742    1.6104951    2.1967368    10.138504 
15015000     1.121509 2.8619269e-05   0.53709062 0.0084822342            0   0.52860839     1.640207    2.1772976    5.1079107 
15020000    1.2565218 -5.7677049e-06   0.36006632  0.018541675            0   0.34152465    1.8376632    2.1977295    1.6071165 
15025000    1.0904643 -5.6270573e-05   0.58082733  0.045511004            0   0.53531632     1.594804    2.1756313   -3.5864753 
15030000    1.1404335 -8.715393e-05   0.53649372  0.037449818            0    0.4990439     1.667884    2.2043777   -6.7201848 
15035000     1.132972 -2.6022108e-05    0.5522977  0.014812568            0   0.53748513    1.6569716    2.2092693  -0.45539452 
15040000    1.1764256 6.7813936e-05    0.4778426  0.033215084            0   0.44462752    1.7205224     2.198365    9.1425121 
15045000    1.1646064 8.9035074e-05   0.50870629  0.046742811            0   0.46196348    1.7032369    2.2119432    11.329135 
15050000    1.1121238 2.382402e-05   0.50822347  0.069870069            0    0.4383534    1.6264811    2.1347046    4.5742842 
15055000   0.99693439 4.0210371e-06   0.69699122   0.13776062            0    0.5592306    1.4580165    2.1550078     2.566762 
15060000    1.1181444 4.7350074e-06    0.5294589  0.074798149            0   0.45466075    1.6352862    2.1647451    2.6496099 
15065000    1.1051269 -3.3465254e-05   0.60016357  0.089673886            0   0.51048968    1.6162481    2.2164117   -1.2104303 
15070000    1.0263739 5.5834662e-05   0.70817285   0.19618311            0   0.51198975    1.5010719    2.2092448    7.9267141 
15075000    1.0582693 0.00014113386   0.63344219  0.063094328            0   0.57034786    1.5477188     2.181161    16.633268 
15080000    1.1243846 7.4409797e-05   0.51138328  0.015886254            0   0.49549703    1.6444125    2.1557958     9.775359 
15085000    1.0144208 -3.6882496e-05   0.64699184  0.032866157            0   0.61412568    1.4835904    2.1305822   -1.6461854 
15090000    1.1849918 1.8428744e-05   0.40350499 0.0038889482            0   0.39961604    1.7330505    2.1365555    4.0236589 
15095000    1.0806157 0.00012314296   0.55396733 0.0067687264            0    0.5471986    1.5804004    2.1343677    14.744207 
15100000     1.050373 8.558048e-05   0.58687347 0.0051819934            0   0.58169148    1.5361706    2.1230441    10.886485 
15105000     1.098844 8.5729342e-05   0.49488017  0.090360961            0   0.40451921    1.6070593    2.1019395    10.880624 
15110000    1.0640879 -3.7734652e-06   0.53096099  0.019482021            0   0.51147897    1.5562286    2.0871895    1.7007867 
15115000    0.9862332 -0.00012242608   0.65908484  0.029754038            0    0.6293308    1.4423661    2.1014509   -10.434979 
15120000    1.1054724 -2.313699e-05   0.44618189  0.038863362            0   0.40731852    1.6167534    2.0629353   -0.3062925 
15125000    1.1193093 8.0328409e-05   0.41607034   0.01065063            0   0.40541971    1.6369898    2.0530601    10.278689 
15130000   0.98364292 6.5305233e-05   0.61658834  0.048444306            0   0.56814403    1.4385778    2.0551661     8.742422 
15135000    1.1589275 -2.8689465e-05   0.34302573  0.012399173            0   0.33062656    1.6949315    2.0379572  -0.89984399 
15140000    1.0366303 -8.1917059e-05   0.53817638  0.034438687            0   0.50373769    1.5160718    2.0542482   -6.3340586 
15145000    1.0335645 1.2186213e-05   0.58170646   0.05580065            0   0.52590581     1.511588    2.0932945    3.3411628 
15150000    1.1790554 1.7792554e-05   0.35376603  0.083587507            0   0.27017852    1.7243685    2.0781345    3.9000921 
15155000    1.0966741 -4.0832307e-05   0.44880636  0.018594443            0   0.43021191    1.6038858    2.0526922   -2.1285361 
15160000   0.99051656 1.0755081e-05   0.56749604            0            0   0.56749604    1.4486305    2.0161265    3.1174468 
15165000    1.0911392 3.9829675e-05   0.40796972   0.02839645            0   0.37957327    1.5957911    2.0037608    6.0823196 
15170000    1.0163144 2.2502123e-05   0.56179801  0.033598203            0   0.52819981    1.4863598    2.0481578    4.3523752 
15175000    1.1600869 2.3557525e-05   0.38563629  0.016739644            0   0.36889665    1.6966271    2.0822634     4.494554 
15180000    1.0995636  6.61408e-05   0.48472988  0.059297409            0   0.42543248    1.6081117    2.0928416    8.8656595 
15185000    1.1358124 4.4959762e-05   0.45964945 0.0047827527            0    0.4548667    1.6611256    2.1207751    6.7246547 
15190000    1.0577184 -4.4829363e-05    0.6128335 6.1423401e-05            0   0.61277207    1.5469132    2.1597467     -2.43078 
15195000    1.0943562 -0.00012539954   0.57146828 0.00010727904            0     0.571361     1.600496    2.1719643   -10.668949 
15200000    1.0220996 -0.00012732235   0.64953276 0.0096479856            0   0.63988478    1.4948207    2.1443534   -10.893455 
15205000    1.1319177 -1.5343483e-05   0.46714564  0.019344225            0   0.44780142    1.6554297    2.1225753    0.5514027 
15210000    1.1344234 8.3464653e-05   0.45720385  0.036922295            0   0.42028156    1.6590942     2.116298    10.663078 
15215000    1.0850219 7.6918896e-05    0.5677515  0.018101474            0   0.54965003    1.5868445     2.154596    10.031091 
15220000    1.0922449 4.9299138e-05   0.52269152   0.01149156            0   0.51119996    1.5974082    2.1200997    7.1683315 
15225000     1.055003 7.6190173e-05   0.57449366   0.11078148            0   0.46371218     1.542942    2.1174356    9.9193093 
15230000    1.1416345 5.5919533e-05   0.46852473  0.026888477            0   0.44163625    1.6696405    2.1381652    7.8643254 
15235000    1.1308512 -5.8354109e-05   0.45400414  0.016040754            0   0.43796339    1.6538698    2.1078739   -3.8675869 
15240000   0.94874183 -7.5386733e-05   0.70502344  0.099975035            0   0.60504841    1.3875349    2.0925584   -5.6270431 
15245000    1.1084658 2.0509193e-05    0.4460912 0.0089484075            0   0.43714279    1.6211312    2.0672224    4.1673637 
15250000    1.1191548 9.6889715e-06    0.4451486  0.040975987            0   0.40417261    1.6367639    2.0819125    3.0740632 
15255000    1.0983347 -2.7800378e-05   0.45373941  0.024899743            0   0.42883966    1.6063145    2.0600539  -0.78670481 
15260000    1.0922683 7.3934538e-06   0.49040756 1.069654e-05            0   0.49039686    1.5974424    2.0878499    2.8449396 
15265000    1.1376527 1.816287e-05   0.39775225            0            0   0.39775225    1.6638171    2.0615694    3.9214473 
15270000    1.0161162 2.5285803e-05   0.54128023 0.0027651254            0   0.53851511    1.4860699    2.0273502    4.6166164 
15275000    1.0942362 3.8981443e-05   0.37557952 0.0059889184            0    0.3695906    1.6003204    1.9758999    5.9675997 
15280000   0.99611771 4.5937978e-05   0.48416449 0.0092574842            0   0.47490701    1.4568221    1.9409866    6.6450355 
15285000    0.9542276 3.2798299e-05   0.54405134   0.01791959            0   0.52613175    1.3955579    1.9396092     5.298155 
15290000    1.0317141 1.3208801e-05   0.46975274  0.025046398            0   0.44470634    1.5088819    1.9786346    3.3312158 
15295000   0.97953782 -5.969569e-05   0.57896897  0.054870203            0   0.52409877    1.4325741     2.011543   -4.1012956 
15300000    1.1529943 -9.6606294e-05   0.37747935  0.018648899            0   0.35883045    1.6862542    2.0637335    -7.828751 
15305000    1.0644634 -9.8459809e-06   0.51642677  0.012381118            0   0.50404565    1.5567777    2.0732045     1.064976 
15310000    1.0433219 2.7760488e-05   0.47000831  0.011287922            0   0.45872038    1.5258583    1.9958666    4.8385405 
15315000   0.98750937 4.4040926e-05    0.5430118  0.036562374            0   0.50644942    1.4442325    1.9872443    6.4970351 
15320000   0.97601126 3.5074422e-05   0.55495099   0.13436963            0   0.42058136    1.4274165    1.9823675    5.5739883 
15325000    0.9774922 -1.5343261e-05   0.53927344  0.029327013            0   0.50994643    1.4295823    1.9688558   0.39770584 
15330000    1.0011414 -1.5454317e-05   0.48498361 0.0017615473            0   0.48322207    1.4641693    1.9491529   0.36663084 
15335000    1.0266694 -4.8885443e-05   0.42894166 0.0021245527            0    0.4268171     1.501504    1.9304456   -3.0754237 
15340000   0.93121347 1.2925935e-05   0.59437567  0.011970118            0   0.58240555    1.3618997    1.9562754    3.2798911 
15345000   0.97930806 2.7522248e-05   0.53666324  0.019594329            0   0.51706891     1.432238    1.9689013    4.7871795 
15350000    1.1080244 1.7079688e-05   0.36554213 0.0098198813            0   0.35572224    1.6204857    1.9860279    3.7349879 
15355000    1.0151902 7.0034777e-05   0.50669183 0.0055251258            0   0.50116671    1.4847157    1.9914075    9.1629686 
15360000   0.94916241 7.5011853e-05   0.57959269 0.00092695932            0   0.57866573      1.38815    1.9677427    9.6489565 
15365000   0.98120856 7.1264305e-05   0.51283935            0            0   0.51283935    1.4350175    1.9478569    9.2453217 
15370000    1.0509841 3.8513566e-05   0.41835632 0.0036069922            0   0.41474932    1.5370642    1.9554205    5.8992097 
15375000   0.95721377 1.0799626e-05   0.58624154  0.019200538            0     0.567041    1.3999251    1.9861667    3.0920484 
15380000    1.0789068 6.9237645e-05   0.40447356  0.032309822            0   0.37216374    1.5779012    1.9823747    9.0723095 
15385000    1.0600502 8.6919747e-05   0.42003771  0.038984673            0   0.38105304    1.5503234    1.9703611    10.870943 
15390000    1.0034761 1.9479328e-05   0.50654798  0.039486388            0   0.46706159    1.4675838    1.9741318    3.9688149 
15395000    1.1034263 1.2568186e-05   0.41944432  0.012425946            0   0.40701838     1.613761    2.0332053    3.3201876 
15400000     1.089389 5.5773613e-05   0.44828369 0.0098179808            0   0.43846571    1.5932315    2.0415152    7.7527331 
15405000    1.0944928 7.1412314e-05   0.45726091  0.023975515            0   0.43328539    1.6006958    2.0579567    9.3705776 
15410000    1.0292148 -7.8594066e-07   0.58299316  0.090127114            0   0.49286605    1.5052267    2.0882198    2.0077395 
15415000    1.1137049 -2.7532044e-05   0.47068676  0.045282911            0   0.42540385    1.6287934    2.0994801  -0.71980112 
15420000    1.0031865 -8.9545086e-06   0.61562231  0.036227502            0    0.5793948    1.4671602    2.0827825    1.1658408 
15425000    1.0627746  3.59594e-05    0.5447049  0.022852452            0   0.52185245    1.5543078    2.0990127    5.7812553 
15430000    1.1348059 0.00011151304   0.48342204 0.0053841235            0   0.47803792    1.6596536    2.1430756    13.562011 
15435000    1.1274361 4.6620017e-05   0.47354303  0.013561494            0   0.45998153    1.6488752    2.1224183     6.896308 
15440000     1.124582 -4.4566308e-05   0.50794284  0.013669818            0   0.49427302    1.6447012     2.152644   -2.4109459 
15445000     1.158538 -5.3567378e-05   0.47802802  0.012949138            0   0.46507888    1.6943618    2.1723899   -3.3129097 
15450000    1.1445108 -7.1229511e-05   0.48113057  0.028429786            0   0.45270078    1.6738471    2.1549776   -5.1389243 
15455000     1.144038 -4.9518559e-05   0.47136804  0.008423759            0   0.46294428    1.6731556    2.1445237   -2.9261768 
15460000    1.1245514 3.6750734e-05   0.48535501   0.01813141            0    0.4672236    1.6446564    2.1300114    5.8932866 
15465000    1.0516309 5.6342773e-05   0.56818982  0.025633765            0   0.54255605    1.5380101       2.1062    7.8756999 
15470000     1.089232 -2.389251e-05   0.51560247 0.0027587645            0   0.51284371    1.5930017    2.1086042  -0.33798878 
15475000    1.0996707 -9.0304462e-05   0.55307525 0.0097290857            0   0.54334616    1.6082684    2.1613437   -7.0858333 
15480000    1.0531566 -5.2723922e-05   0.59133282  0.056327248            0   0.53500557    1.5402415    2.1315743   -3.2673553 
15485000    1.0709355 2.8282355e-05   0.51573384   0.01850035            0   0.49723349    1.5662432     2.081977    4.9780902 
15490000    1.0931508 8.2429925e-06   0.43244718 0.0028380476            0   0.42960914    1.5987331    2.0311802    2.8752627 
15495000   0.98687367 8.0718179e-06   0.54457775 0.0057768131            0   0.53880093    1.4433027    1.9878805    2.8144346 
15500000    1.0335772 4.1504114e-05    0.5308782   0.02981115            0   0.50106705    1.5116066    2.0424848    6.2925061 
15505000    1.0031305 -8.6736416e-06    0.5434438  0.086118504            0    0.4573253    1.4670783    2.0105222    1.1223412 
15510000   0.97146254 5.2779743e-05   0.65282981  0.074858886            0   0.57797093     1.420764    2.0735938    7.4782395 
15515000    1.0666656 3.0306184e-06   0.55269014  0.032615271            0   0.52007487    1.5599984    2.1126886    2.4230239 
15520000   0.98562934 -2.829401e-05   0.65813536  0.064502614            0   0.59363275    1.4414829    2.0996183  -0.79768834 
15525000    1.1025651 1.2718703e-05   0.52705541   0.12436568            0   0.40268973    1.6125015    2.1395569    3.4419521 
15530000   0.98218318 -4.400556e-05   0.70155295  0.061266244            0   0.64028671    1.4364429    2.1379958   -2.3681735 
15535000    1.1867338 -5.5532849e-05    0.4275149 0.0079884961            0    0.4195264    1.7355981     2.163113   -3.5234508 
15540000    1.0378105 5.9348119e-06   0.63741359 0.00028919403            0   0.63712439    1.5177978    2.1552114    2.7629361 
15545000    1.0997594 4.0382132e-05   0.59407622 0.0036268422            0   0.59044937    1.6083981    2.2024744    6.3376047 
15550000     1.169944 9.3861001e-06   0.53779982  0.028629601            0   0.50917022     1.711043    2.2488429    3.2099795 
15555000    1.1325135 6.0013667e-05   0.66324837  0.027260943            0   0.63598743     1.656301    2.3195494    8.4649489 
15560000    1.1139859 7.6326273e-05   0.71289164   0.03068414            0    0.6822075    1.6292044    2.3420961    10.157906 
15565000    1.1383266 2.8259418e-05   0.61633349  0.037829749            0   0.57850374    1.6648026    2.2811361    5.1749005 
15570000    1.1951014 4.6206324e-05   0.52373953  0.018825424            0   0.50491411    1.7478358    2.2715753     7.003103 
15575000    1.0545273 3.1663999e-05   0.70689621  0.036169174            0   0.67072704    1.5422462    2.2491425     5.491536 
15580000    1.0923969 -2.8632363e-05   0.65700471  0.041375445            0   0.61562926    1.5976305    2.2546352  -0.67731878 
15585000    1.1077924 -2.2381285e-06    0.6294265  0.022297621            0   0.60712888    1.6201464    2.2495729    2.0203885 
15590000    1.0879342 6.1187175e-05   0.61433315  0.055968524            0   0.55836463    1.5911038     2.205437    8.4710037 
15595000    1.0644165 8.9242592e-05   0.62108842   0.10242372            0    0.5186647    1.5567092    2.1777976    11.316239 
15600000    1.1463466 9.4081298e-05   0.51268897  0.012447735            0   0.50024124     1.676532    2.1892209    11.823146 
15605000    1.1673822 3.5910708e-05   0.50353001 0.0024022662            0   0.50112774    1.7072964    2.2108264    5.8880829 
15610000    1.0456289 -5.1362066e-05   0.60775889 0.0070758004            0   0.60068309    1.5292323    2.1369912   -3.1224843 
15615000    1.2158316 -2.8883975e-07   0.42356752  0.037130907            0   0.38643661    1.7781537    2.2017212     2.172144 
15620000     1.088498 2.0484109e-05   0.55430125  0.024199514            0   0.53010173    1.5919283    2.1462295    4.2438023 
15625000    1.0959133 -4.3258277e-05   0.56602044 0.0090076123            0   0.55701283    1.6027732    2.1687936   -2.2608539 
15630000    1.1922141 -2.7550031e-05   0.44766371  0.007921147            0   0.43974256    1.7436131    2.1912768  -0.62984633 
15635000    1.0427046 3.9763804e-05   0.63381717  0.035153087            0   0.59866408    1.5249555    2.1587727    6.2305862 
15640000    1.0583593 -6.3072897e-06   0.62073584  0.044310857            0   0.57642498    1.5478505    2.1685864    1.5227199 
15645000     1.112622 -0.00010507103   0.55406844  0.021275801            0   0.53279264    1.6272097    2.1812782    -8.577995 
15650000    1.1255873 -3.0295461e-06   0.59858214  0.017311499            0   0.58127064    1.6461714    2.2447535     1.934528 
15655000    1.0785262 5.306177e-05    0.5980336 0.0020372907            0   0.59599631    1.5773446    2.1753782    7.6089034 
15660000    1.1874157 3.3756462e-05   0.46190527 5.2982041e-05            0   0.46185229    1.7365955    2.1985008    5.6551625 
15665000    1.0971393 -2.6013534e-05   0.64904646 0.00053896717            0   0.64850749    1.6045662    2.2536126  -0.41017321 
15670000    1.0078507 -7.2648779e-05   0.81388513 0.0003608958            0   0.81352424    1.4739817    2.2878668   -5.1513681 
15675000    1.2052086 -5.4651733e-05   0.52255897 0.00056056203            0   0.52199841    1.7626175    2.2851765   -3.3111609 
15680000     1.136454 -6.2388723e-06   0.63199648  0.016779211            0   0.61521727     1.662064    2.2940605    1.6551999 
15685000    1.2390685 1.6580413e-05    0.5091673  0.045115319            0   0.46405198    1.8121377     2.321305    4.0191393 
15690000    1.1707878 2.0969266e-05   0.62829874  0.016810161            0   0.61148858    1.7122772    2.3405759    4.4878287 
15695000    1.1622459 5.6353575e-05   0.62676094  0.016232741            0    0.6105282    1.6997846    2.3265455    8.0971516 
15700000    1.2068081 1.3009629e-05   0.57271316    0.1257332            0   0.44697997    1.7649568      2.33767     3.669856 
15705000    1.3183512 -4.1656674e-06   0.41382558  0.014391863            0   0.39943372    1.9280886    2.3419142    1.9153499 
15710000    1.1788276 3.1949504e-05   0.60833526 0.0080899728            0   0.60024529    1.7240354    2.3323707    5.6039999 
15715000    1.2124696 -3.2545321e-05   0.54624422   0.04788412            0    0.4983601    1.7732368     2.319481   -1.0131598 
15720000    1.2102776 -4.9572544e-05   0.54249839   0.07332221            0   0.46917618     1.770031    2.3125294   -2.7636991 
15725000    1.1102955 1.4122372e-05   0.64689263  0.014257877            0   0.63263476    1.6238072    2.2706999    3.7168307 
15730000    1.1122829 4.4113198e-05   0.63034109 1.6477253e-05            0   0.63032461    1.6267137    2.2570548    6.7742463 
15735000    1.2772708 3.8820868e-05   0.41620866 0.0059911783            0   0.41021748    1.8680085    2.2842172    6.2594741 
15740000    1.1922629 1.2644995e-06   0.53739368  0.012841372            0   0.52455231    1.7436845    2.2810781    2.4105629 
15745000    1.2868585 -1.761733e-06   0.41303323  0.018106677            0   0.39492655    1.8820305    2.2950637    2.1146623 
15750000    1.0957761 4.0203044e-05   0.65891237  0.047118869            0    0.6117935    1.6025726     2.261485    6.3782767 
15755000    1.1290348 2.9161591e-05   0.58103822  0.013300446            0   0.56773777    1.6512135    2.2322517    5.2183986 
15760000     1.079676 7.3415764e-05   0.67047485  0.041903119            0   0.62857173    1.5790261     2.249501    9.7672752 
15765000    1.0993417 9.6622114e-05   0.63698979   0.15524131            0   0.48174848    1.6077873    2.2447771    12.138882 
15770000    1.1099107 1.3410557e-06   0.60905663   0.08295098            0   0.52610565    1.6232444     2.232301    2.3696251 
15775000    1.1871614 -5.2662706e-05   0.45519427  0.040181473            0    0.4150128    1.7362236    2.1914179   -3.2012433 
15780000    1.0875965 1.9668556e-05   0.61021296  0.021541163            0    0.5886718    1.5906098    2.2008228    4.2148829 
15785000    1.1637408 3.4222576e-05   0.54627883  0.020081346            0   0.52619748    1.7019709    2.2482498    5.7526415 
15790000    1.1130066 -2.9388473e-05   0.65726385  0.020784012            0   0.63647984    1.6277722    2.2850361  -0.72434362 
15795000    1.0893942 -1.1996687e-05   0.62345461  0.028667419            0   0.59478719    1.5932391    2.2166937    0.9882329 
15800000    1.1082677 -1.0066867e-06   0.65269424  0.013615709            0   0.63907853    1.6208416    2.2735358    2.1704511 
15805000    1.1310888 7.2858024e-06   0.55550615 0.0035483892            0   0.55195776    1.6542173    2.2097235    2.9557897 
15810000    1.1346762 4.3558267e-05    0.5478205 0.00013548795            0   0.54768501     1.659464    2.2072845     6.667651 
15815000    1.0445666 5.6344473e-05   0.67493973  0.002128784            0   0.67281095    1.5276787    2.2026184    7.9722925 
15820000     1.156937 6.2453531e-05   0.55125743  0.013765795            0   0.53749164    1.6920204    2.2432778    8.6385194 
15825000     1.174348 5.2633095e-05   0.56423573  0.013210166            0   0.55102556     1.717484    2.2817197    7.6713487 
15830000    1.1560992 4.7317875e-05   0.56919999  0.015048615            0   0.55415137    1.6907951    2.2599951    7.1053455 
15835000    1.0760149 1.8747362e-05   0.69405049   0.04350138            0   0.65054911    1.5736718    2.2677223    4.1874522 
15840000    1.1461654 2.1654035e-05   0.58804969  0.023111928            0   0.56493776    1.6762669    2.2643165    4.4816897 
15845000    1.2225904 3.9901631e-05   0.48048945  0.015002943            0   0.46548651    1.7880385     2.268528    6.3544549 
15850000    1.2494543 8.7460143e-06    0.4746975  0.010122126            0   0.46457538    1.8273269    2.3020244    3.1976162 
15855000    1.1161345 -4.1460876e-06   0.71942843 0.0039148836            0   0.71551354    1.6323467    2.3517752    1.9272158 
15860000    1.1723792 -4.8151472e-05   0.63093529  0.044258433            0   0.58667685    1.7146045    2.3455398   -2.5851709 
15865000    1.1157026 -4.582805e-05   0.68086074  0.052208969            0   0.62865177    1.6317151    2.3125758   -2.3802165 
15870000    1.2775187 1.8630908e-06   0.39998112 0.0095085737            0   0.39047255    1.8683712    2.2683523    2.4591328 
15875000    1.2879691 -3.5999752e-05   0.38854671  0.021111795            0   0.36743492    1.8836548    2.2722015   -1.4141731 
15880000     1.133126 -3.1490718e-05   0.60949358  0.019661851            0   0.58983173    1.6571968    2.2666904  -0.95795914 
15885000    1.1308078 -5.5458863e-05   0.60106327  0.035640799            0   0.56542247    1.6538064    2.2548696   -3.4241179 
15890000    1.1366778 -2.9733009e-06   0.54277326  0.043739956            0    0.4990333    1.6623913    2.2051646    1.9006986 
15895000    1.1347406 2.5482672e-05   0.53510768 0.0076003655            0   0.52750731    1.6595581    2.1946658    4.8040914 
15900000    1.0679607 4.4029638e-05   0.68313567  0.020249309            0   0.66288637    1.5618926    2.2450283    6.7536632 
15905000    1.0012617 -2.9893291e-05   0.76344195 0.0077900181            0   0.75565193    1.4643453    2.2277872  -0.83328576 
15910000    1.0985035 -5.980622e-05   0.61283064 0.0045036564            0   0.60832698    1.6065614     2.219392    -3.904765 
15915000    1.1232619 -7.4449599e-07   0.56603653 0.0057826006            0   0.56025393    1.6427706    2.2088071    2.1325707 
15920000    1.0771355 3.5980321e-05    0.6208207 0.0031694964            0    0.6176512    1.5753107    2.1961314    5.8805163 
15925000    1.1958578 7.0979123e-06   0.39298662 6.4589008e-05            0   0.39292204     1.748942    2.1419286    2.8687548 
15930000   0.97054128 -1.9136838e-05    0.7642175            0            0    0.7642175    1.4194166    2.1836341   0.22402188 
15935000    1.0798344 -9.2555304e-06   0.60771831            0            0   0.60771831    1.5792578    2.1869761    1.2392097 
15940000    1.1183843 -3.7031311e-05   0.52690224 0.00043520416            0   0.52646703     1.635637    2.1625393    -1.629467 
15945000     1.144088 -4.8642699e-05   0.48910877  0.038010953            0   0.45109782    1.6732287    2.1623374   -2.8186749 
15950000    1.0064777 -1.220657e-05   0.70398638  0.052527727            0   0.65145865    1.4719736      2.17596   0.92600722 
15955000    1.0852485 1.9553945e-05   0.57837956   0.10142602            0   0.47695354    1.5871759    2.1655555    4.1678795 
15960000    1.1348012 -6.1515825e-06   0.50267509  0.070262488            0    0.4324126    1.6596468    2.1623219    1.5323998 
15965000    1.1553618 -1.8279243e-05   0.43281638  0.033368515            0   0.39944787    1.6897166     2.122533   0.25073846 
15970000    1.0753788 6.2663228e-05   0.56555252    0.0558953            0   0.50965722    1.5727415    2.1382941    8.5550086 
15975000    1.1106804 0.00011611721   0.54887192  0.025204171            0   0.52366775      1.62437     2.173242    14.063644 
15980000    1.1215591 7.0422688e-05   0.51248146  0.027612741            0   0.48486872    1.6402802    2.1527616    9.3640449 
15985000    1.1515282 -4.1048439e-05   0.46849168  0.014005578            0   0.45448611    1.6841099    2.1526016   -2.0507586 
15990000    1.1248288 -6.1377935e-05   0.50182222 0.0034242357            0   0.49839799    1.6450621    2.1468844   -4.1382162 
15995000    1.1385885 -1.4330106e-05   0.49801861 0.00089047318            0   0.49712814    1.6651856    2.1632042   0.69580138 
16000000    1.1135393 -5.4708087e-05   0.51456331 0.0033420378            0   0.51122127    1.6285512    2.1431145   -3.4589936 
16005000    1.0582367 -0.00011256435   0.61330146 0.0034134137            0   0.60988804    1.5476712    2.1609727   -9.3656166 
16010000    1.2174416 -1.390324e-05   0.37086722 0.0044818316            0   0.36638539    1.7805083    2.1513755   0.72768372 
16015000    1.0899053 6.9556605e-05   0.54146819 0.0060499946            0   0.53541819    1.5939865    2.1354547    9.2580511 
16020000    1.0956444 5.6970279e-07   0.54900755 0.0077484733            0   0.54125908      1.60238    2.1513876    2.2097251 
16025000     1.074695 5.3607819e-07   0.56946559  0.052982807            0   0.51648278    1.5717414     2.141207    2.1961014 
16030000    1.0952771 5.3344943e-05   0.53539401   0.04397082            0   0.49142319    1.6018427    2.1372367    7.5997589 
16035000     1.165028 5.2709369e-05    0.4260663  0.026694225            0   0.39937207    1.7038534    2.1299197    7.5273592 
16040000     1.071148 5.289994e-06   0.60665374    0.0337838            0   0.57286994    1.5665539    2.1732076     2.714903 
16045000   0.99034479 1.5183929e-05   0.73431346   0.12167595            0   0.61263752    1.4483792    2.1826927    3.7375271 
16050000    1.1034587 4.2017283e-05   0.59658674  0.069569534            0   0.52701721    1.6138084    2.2103951     6.512965 
16055000    1.2424409 -5.2576741e-06   0.43645086 0.0092815449            0   0.42716931    1.8170698    2.2535207    1.7151348 
16060000    1.2303349 -3.0614731e-05   0.45282561 0.0068455081            0    0.4459801    1.7993649    2.2521905  -0.88275801 
16065000    1.1429192 1.3862694e-05   0.52901984 0.0080956725            0   0.52092417    1.6715193    2.2005391     3.620079 
16070000    1.1366471 2.844901e-05   0.60953022  0.051615377            0   0.55791484    1.6623464    2.2718766    5.1850553 
16075000     1.111099 -4.4035042e-05    0.6748217  0.033746598            0   0.64107511    1.6249823     2.299804   -2.2093843 
16080000    1.1191834 5.8841018e-05   0.66065809   0.11854928            0   0.54210881    1.6368057    2.2974638    8.3227841 
16085000    1.0621519 9.3025455e-05   0.71236111   0.21384699            0   0.49851412    1.5533971    2.2657582    11.791565 
16090000    1.1444343 -3.0781029e-05    0.5549478  0.025525348            0   0.52942246    1.6737352     2.228683  -0.92329436 
16095000    1.1645343 -4.2320445e-05   0.53275904 0.0007542016            0   0.53200484    1.7031314    2.2358905   -2.0977231 
16100000    1.2176351 -1.3951966e-05   0.48883288  0.072935609            0   0.41589727    1.7807913    2.2696242   0.84094289 
16105000    1.1726611 -2.2639279e-06   0.54269057  0.090320993            0   0.45236958    1.7150169    2.2577074    2.0258812 
16110000    1.1725611 -3.2068069e-05   0.54889995 0.0098754174            0   0.53902454    1.7148706    2.2637706   -1.0199997 
16115000    1.1704144 -5.1592382e-05   0.51462145            0            0   0.51462145     1.711731    2.2263525   -3.0567074 
16120000    1.3174065 -1.721246e-05   0.30851258            0            0   0.30851258    1.9267069    2.2352195   0.47266359 
16125000    1.1365848 5.6012382e-05   0.57663903 0.0016863443            0   0.57495268    1.6622552    2.2388943    7.9745621 
16130000    1.0911974 3.1077895e-05   0.62855544   0.03376719            0   0.59478825    1.5958761    2.2244316     5.406808 
16135000    1.2172016 1.1174625e-06   0.46596538  0.026041664            0   0.43992372    1.7801573    2.2461227    2.3605509 
16140000    1.1775363 4.5004646e-05   0.52360128 0.00011453847            0   0.52348674    1.7221468    2.2457481    6.8542239 
16145000    1.2333099 -4.2422859e-05   0.50350369 0.0035300307            0   0.49997366    1.8037157    2.3072194   -2.0368814 
16150000    1.2604906 6.1686978e-06   0.47642883  0.056873883            0   0.41955494    1.8434675    2.3198963     2.951571 
16155000    1.1752475 -3.3022577e-07   0.56456811   0.13428068            0   0.43028743    1.7187995    2.2833676    2.2495525 
16160000    1.2393924 -5.7838207e-05   0.41488635   0.05653805            0    0.3583483    1.8126114    2.2274978   -3.6951346 
16165000    1.1072751 -2.9634383e-05   0.59074777   0.14662571            0   0.44412206    1.6193899    2.2101376  -0.82442316 
16170000    1.0604466 -5.8435269e-05   0.65447207  0.050188721            0   0.60428335    1.5509032    2.2053753   -3.7783963 
16175000    1.1805428 5.2027773e-05    0.4795379  0.022715948            0   0.45682195    1.7265438    2.2060817    7.5337257 
16180000    1.1585866 -1.5797651e-06   0.51576283  0.064847663            0   0.45091517    1.6944329    2.2101957    2.0484277 
16185000    1.1402683 2.0570274e-05   0.47082885  0.018685777            0   0.45214307    1.6676423    2.1384712    4.2448672 
16190000    1.1592137 6.3556896e-05   0.44225219            0            0   0.44225219      1.69535    2.1376022    8.6458283 
16195000    1.1395814 -5.1531156e-05   0.46381911            0            0   0.46381911    1.6666378    2.1304569   -3.1463335 
16200000    1.1609927 1.0905307e-06   0.43453959 0.00087044133            0   0.43366915    1.6979519    2.1324915    2.2441618 
16205000    1.0974715 5.5078865e-07   0.49401587  0.026099725            0   0.46791614    1.6050521    2.0990679    2.1554687 
16210000    1.1385533 4.6218415e-05   0.41848255  0.023803382            0   0.39467917    1.6651341    2.0836167    6.8163824 
16215000    1.1809357 8.2303929e-05   0.36708221 0.0040107235            0   0.36307148    1.7271185    2.0942007    10.522123 
16220000    1.0308976 3.9467965e-05   0.50833115  0.023706934            0   0.48462422    1.5076877    2.0160188    6.0575385 
16225000    1.0262106 5.9548329e-05   0.50127473   0.04420539            0   0.45706934     1.500833    2.0021077    8.0998566 
16230000    1.0911963 -3.4654889e-05   0.40296221  0.035105419            0   0.36785679    1.5958745    1.9988367   -1.5498239 
16235000    1.0800947 3.120463e-05   0.41541166  0.059729949            0   0.35568171    1.5796385    1.9950502    5.1904043 
16240000   0.98069505 4.988014e-05   0.53974753  0.051549342            0   0.48819819    1.4342665     1.974014    7.0817404 
16245000    1.0443791 -3.0315791e-05   0.44784304  0.023790268            0   0.42405277    1.5274044    1.9752474   -1.1290895 
16250000   0.94513188 -1.1347308e-05   0.61241532  0.044498864            0   0.56791646    1.3822554    1.9946707   0.83270638 
16255000    1.0684109 3.5283748e-05     0.425484  0.048309523            0   0.37717448     1.562551     1.988035    5.6010907 
16260000    1.1314677 3.1809362e-05    0.3413453 0.0057930138            0   0.33555228    1.6547715    1.9961168    5.2533954 
16265000    0.9454827 1.6964299e-05   0.60138471  0.076213194            0   0.52517152    1.3827684    1.9841532    3.7212974 
16270000    1.0852997 5.9929949e-05   0.40163453  0.044872902            0   0.35676163    1.5872508    1.9888854    8.1257121 
16275000    1.1122556 8.6365624e-05   0.39641421  0.014686551            0   0.38172766    1.6266738     2.023088    10.866928 
16280000    1.0710311 3.6544766e-05   0.45696863  0.030765735            0    0.4262029     1.566383    2.0233517    5.7655357 
16285000    1.0525712 -6.3683576e-05    0.4887119  0.030392345            0   0.45831955    1.5393853    2.0280972    -4.493101 
16290000    1.0077106 -8.7397869e-05   0.56864099  0.025879788            0   0.54276121    1.4737767    2.0424177    -6.907124 
16295000    1.0863033 -3.2437151e-05   0.43285956  0.024821007            0   0.40803855    1.5887186    2.0215781   -1.2999861 
16300000    1.1079189 8.7750247e-06   0.34947031 0.0045151998            0   0.34495511    1.6203314    1.9698017    2.8683642 
16305000     1.084987 1.6149127e-05   0.38823522  0.020000172            0   0.36823505    1.5867935    1.9750287    3.6286993 
16310000    1.0164296 1.1787963e-05   0.48547081  0.021139202            0   0.46433161    1.4865283    1.9719991    3.1790866 
16315000    1.0553505 3.1384014e-06   0.44472869 0.0019662002            0   0.44276249    1.5434501    1.9881787     2.309551 
16320000    1.0673372 4.5505675e-05   0.43741618  0.003431284            0    0.4339849    1.5609806    1.9983968    6.6581778 
16325000    1.0623043 0.00010335972   0.41688664  0.019236989            0   0.39764965      1.55362    1.9705066    12.554542 
16330000     1.099639 6.3514318e-05   0.40411607  0.015795691            0   0.38832038     1.608222    2.0123381    8.5162042 
16335000      1.01834 7.1541733e-06   0.50145722 0.0028356033            0   0.49862161    1.4893222    1.9907794    2.7233668 
16340000    1.1259531 5.4265163e-05   0.32331575 0.0060043717            0   0.31731138    1.6467064    1.9700221    7.5267749 
16345000   0.99220408 7.9451049e-05   0.47946284  0.018099703            0   0.46136314    1.4510985    1.9305613    10.066349 
16350000    1.0690416 2.2343368e-06   0.36523822  0.020641509            0   0.34459671    1.5634733    1.9287115    2.1575076 
16355000    1.0235623 -3.2454471e-05   0.45693858   0.03435962            0   0.42257896    1.4969598    1.9538984   -1.3694394 
16360000     1.098272 2.3859453e-05   0.37774956   0.01282004            0   0.36492952    1.6062229    1.9839724    4.4271804 
16365000    1.0812201 5.4579711e-05    0.4683039  0.007523589            0   0.46078031    1.5812844    2.0495883    7.6385507 
16370000    1.0079348 3.6303159e-05   0.54914192  0.032365502            0   0.51677641    1.4741046    2.0232465      5.74069 
16375000    1.0622879 3.3959602e-05   0.51688742  0.039290124            0   0.47759729     1.553596    2.0704835    5.5479467 
16380000      1.01709 5.5254049e-05   0.57641791  0.033645496            0   0.54277241    1.4874942    2.0639121    7.7219267 
16385000    1.1429581 1.7307067e-05   0.36050704  0.040899982            0   0.31960706    1.6715762    2.0320832    3.8043269 
16390000     1.136133 -2.0318681e-06   0.31733345  0.024461089            0   0.29287236    1.6615946     1.978928    1.7708647 
16395000    1.0401343 -4.5711546e-05   0.44156529 0.0041304758            0   0.43743481    1.5211965    1.9627617   -2.7181005 
16400000    1.0288385 -3.7868982e-05   0.49127229  0.023946279            0   0.46732601    1.5046763    1.9959486   -1.8818352 
16405000    1.1201987 -6.3652804e-07   0.34264207  0.066191193            0   0.27645088    1.6382906    1.9809327    1.9157522 
16410000   0.96219574 -1.6783027e-05   0.58461864   0.14351274            0    0.4411059    1.4072113    1.9918299   0.27324797 
16415000   0.99353335 3.5699556e-05   0.52478556   0.12124861            0   0.40353696    1.4530425    1.9778281    5.6334626 
16420000     1.128957 4.0920132e-05   0.35949336  0.018988169            0   0.34050519    1.6510996     2.010593    6.2008145 
16425000    1.0805554 2.172512e-05   0.44433237  0.062022017            0   0.38231036    1.5803123    2.0246447     4.249297 
16430000    1.0998773 6.1582778e-05   0.44485173   0.02890637            0   0.41594536    1.6085705    2.0534223    8.3594987 
16435000    1.0105432 5.5682306e-05   0.62746624  0.044322019            0   0.58314422    1.4779195    2.1053857    7.8072539 
16440000     1.168023 4.0144032e-05   0.46230609  0.013977713            0   0.44832838    1.7082336    2.1705397    6.2812886 
16445000    1.1703522 4.2165107e-05   0.46017534  0.009740252            0   0.45043509      1.71164    2.1718154    6.4895224 
16450000    1.1810581 -8.0865616e-05   0.39902469 0.0055882963            0    0.3934364    1.7272974    2.1263221    -6.154317 
16455000    1.1281551 -0.0001313054     0.454677 0.00057248395            0   0.45410452    1.6499268    2.1046038   -11.341069 
16460000    1.1536564 3.0230764e-05   0.41796007 0.0027377674            0   0.41522231    1.6872225    2.1051826    5.2008129 
16465000    1.1798406 4.3280099e-05   0.33207704  0.030726373            0   0.30135067    1.7255169    2.0575939    6.4894761 
16470000    1.0880694 -5.5164249e-05   0.41574969  0.016543716            0   0.39920597    1.5913015    2.0070512   -3.6417679 
16475000      1.00137 -3.3645626e-06   0.52826303 0.0040743835            0   0.52418865    1.4645037    1.9927667    1.6482355 
16480000    1.0257523 2.5014875e-05   0.50007878  0.015557075            0   0.48452171    1.5001627    2.0002415    4.5617648 
16485000    1.0720646 -6.2208017e-05   0.41396922  0.013070231            0   0.40089899    1.5678945    1.9818637   -4.3882373 
16490000    1.1524681 -7.2774781e-05   0.32259635  0.018025816            0   0.30457054    1.6854845    2.0080809   -5.4440566 
16495000    1.0398896 -9.9908713e-06   0.51731202 0.0099297293            0   0.50738229    1.5208385    2.0381505    1.0150853 
16500000     1.055776 -1.6622475e-05   0.49941773 0.00044078531            0   0.49897695    1.5440724    2.0434901   0.34134863 
16505000     1.076911 3.7151776e-05   0.45509879  0.022050899            0   0.43304789    1.5749823    2.0300811     5.834423 
16510000    1.1246654 7.5932167e-05   0.41993144   0.05328699            0   0.36664445    1.6448232    2.0647546    9.8402085 
16515000    1.0607539 -2.4467097e-05   0.48871772 0.0072340584            0   0.48148367    1.5513525    2.0400703  -0.46536044 
16520000    1.0881486 -7.7256874e-05    0.4759418 0.0058400719            0   0.47010173    1.5914173    2.0673591   -5.8437449 
16525000    1.0982458 -3.873395e-06   0.50196825 0.0051074487            0    0.4968608    1.6061844    2.1081527     1.711517 
16530000    1.1649483 4.0727507e-05   0.40744795  0.012970194            0   0.39447775    1.7037368    2.1111848    6.2816815 
16535000    1.0674442 9.9457681e-06   0.55653129  0.020620643            0   0.53591065    1.5611371    2.1176684     3.136115 
16540000    1.1198122 -5.2543602e-05   0.45438685 0.0038039331            0   0.45058292    1.6377254    2.0921122   -3.2883527 
16545000    1.1347792 -4.7926482e-05   0.44998673            0            0   0.44998673    1.6596146    2.1096013   -2.7980704 
16550000    1.2111462 6.719099e-06   0.35327458            0            0   0.35327458    1.7713013    2.1245759    2.8126116 
16555000    1.1529401 4.0078203e-05   0.44735118            0            0   0.44735118    1.6861749     2.133526     6.237534 
16560000    1.1334003 4.7288816e-05   0.45465834            0            0   0.45465834     1.657598    2.1122563    6.9546311 
16565000    1.1278226 1.5977268e-05   0.45630235 2.3510752e-05            0   0.45627884    1.6494406    2.1057429    3.7418151 
16570000    1.1255832 -4.6918007e-05   0.46534672 0.0064925697            0   0.45885415    1.6461654    2.1115121   -2.6928918 
16575000    1.1526774 -1.8594064e-05   0.37553951  0.013519631            0   0.36201987    1.6857907    2.0613302   0.15729806 
16580000    1.0467802 3.7293534e-05   0.52987931  0.011846463            0   0.51803285     1.530916    2.0607953    5.8796532 
16585000    1.0882332 -1.5625083e-05   0.47275035  0.019228798            0   0.45352155     1.591541    2.0642914   0.46428288 
16590000    1.0943138 5.7899366e-05   0.47267868   0.05176278            0    0.4209159     1.600434    2.0731127    8.0020078 
16595000   0.96078851 0.00013668032   0.65062142   0.13593533            0   0.51468609    1.4051532    2.0557746    16.051839 
16600000    1.0519178 0.0001046056   0.49909298   0.14096514            0   0.35812784    1.5384297    2.0375227    12.749136 
16605000    1.0613044 2.2070014e-05   0.46530064  0.049613045            0   0.41568759    1.5521577    2.0174583    4.2774278 
16610000    1.0723299 -4.5421365e-05   0.42922727  0.026818413            0   0.40240886    1.5682825    1.9975098    -2.653638 
16615000    1.0983277 5.249619e-06   0.39923688 0.0058930286            0   0.39334385    1.6063043    2.0055411    2.5431021 
16620000    1.0520881 0.00011161659   0.48566944 0.00028372234            0   0.48538572    1.5386788    2.0243482    13.453887 
16625000    1.1146563 9.9840119e-05   0.40949713 0.0055692568            0   0.40392787    1.6301849     2.039682     12.26331 
16630000    1.0406843 -4.4728749e-05   0.53713372  0.018081086            0   0.51905263    1.5220009    2.0591346   -2.5210893 
16635000     1.081014 6.3363653e-06   0.46817041  0.011114777            0   0.45705563     1.580983    2.0491534    2.6979972 
16640000     1.072429 5.8117156e-05    0.5155613  0.020988744            0   0.49457256    1.5684274    2.0839887    8.0351855 
16645000   0.94888624 -5.0153273e-06   0.69878751  0.024049095            0   0.67473842    1.3877461    2.0865336    1.5729641 
16650000    1.1097408 -2.2841502e-06    0.5037672  0.010096666            0   0.49367054     1.622996    2.1267632    1.8928662 
16655000    1.1706582 -3.8455809e-05   0.42441811  0.029979188            0   0.39443892    1.7120877    2.1365058    -1.801369 
16660000    1.0468428 -4.7750717e-05   0.64722051  0.072438173            0   0.57478233    1.5310076    2.1782281   -2.7114454 
16665000    1.1206707 -2.7734633e-05   0.54122084   0.02859302            0   0.51262782    1.6389809    2.1802017   -0.6598247 
16670000     1.006146 -9.3498603e-05   0.65904556  0.019645703            0   0.63939986    1.4714885    2.1305341   -7.4437229 
16675000    1.1037404 -3.8958816e-05    0.5242157   0.08182884            0   0.44238686    1.6142204    2.1384361   -1.8509467 
16680000    1.1856463 8.6987426e-05   0.41093682  0.035847406            0   0.37508941    1.7340077    2.1449446    11.052457 
16685000    1.0494595 7.4068769e-05   0.58837501            0            0   0.58837501    1.5348346    2.1232096    9.7078515 
16690000      1.20462 -1.9951221e-05   0.34104775            0            0   0.34104775    1.7617568    2.1028046  0.059799494 
16695000    1.0642637 -8.1269524e-05   0.59881094 0.0054915624            0   0.59331938    1.5564856    2.1552965   -6.1667028 
16700000    1.1156311 -5.5474651e-05   0.52605488  0.093568458            0   0.43248642    1.6316105    2.1576654   -3.5229389 
16705000    1.1398051 1.2620675e-05   0.54171266  0.019491362            0    0.5222213    1.6669649    2.2086776    3.5010347 
16710000    1.1773472 -2.669625e-05   0.51136088 0.0038402207            0   0.50752065    1.7218703    2.2332312  -0.50046486 
16715000    1.0654394 -0.00013236932   0.68950221 0.00040879604            0   0.68909342    1.5582052    2.2477074   -11.306911 
16720000    1.0297022 -3.0945203e-05   0.68326786            0            0   0.68326786    1.5059395    2.1892074   -0.9795814 
16725000    1.0959895 -1.8736032e-05   0.58798878  0.004331483            0    0.5836573    1.6028847    2.1908735   0.27230374 
16730000      1.10005 -5.4718957e-05   0.54848312   0.03087321            0   0.51760991    1.6088232    2.1573063   -3.4459149 
16735000    1.0350913 -7.8590962e-06   0.65135532  0.020662458            0   0.63069286     1.513821    2.1651764    1.3604049 
16740000    1.1182241 -4.9165506e-05   0.53710172 0.0015406745            0   0.53556104    1.6354027    2.1725044   -2.8620434 
16745000    1.1512631 -6.2059778e-05   0.46557675            0            0   0.46557675    1.6837223     2.149299   -4.2056223 
16750000    1.0009726 -3.9091586e-05   0.67444103            0            0   0.67444103    1.4639225    2.1383635   -1.8646149 
16755000    1.1177995 1.8662335e-05    0.5154677 0.0025286471            0   0.51293905    1.6347818    2.1502495    4.0612726 
16760000    1.1976501 3.666051e-05   0.38753426  0.019582974            0   0.36795129    1.7515632    2.1390975    5.8931337 
16765000    1.0216996 -6.6894389e-05   0.64171254  0.031113502            0   0.61059904    1.4942357    2.1359482   -4.7140372 
16770000    1.0740319 -6.296746e-05    0.5738997   0.04764444            0   0.52625526    1.5707716    2.1446713   -4.3031966 
16775000    1.1294445 2.1943262e-05   0.47389309  0.016883303            0   0.45700979    1.6518126    2.1257057    4.3726957 
16780000    1.1489827 -1.0137851e-05   0.46458649 0.0086846479            0   0.45590184    1.6803872    2.1449737    1.1068577 
16785000    1.1030137 -3.4150627e-05   0.55348363 0.0031859049            0   0.55029773    1.6131575    2.1666411   -1.3303831 
16790000    1.1669587 2.3620435e-05   0.45455238 0.00011459939            0   0.45443778     1.706677    2.1612294     4.579962 
16795000    1.1161197 4.8674033e-05   0.49321069            0            0   0.49321069    1.6323251    2.1255358    7.1097567 
16800000    1.2113381 -1.5974576e-05   0.37477852            0            0   0.37477852    1.7715819    2.1463605   0.51056383 
16805000     1.193481 -5.5905141e-06   0.43763096            0            0   0.43763096     1.745466     2.183097    1.6106283 
16810000    1.1460186 2.2279768e-06   0.56002152            0            0   0.56002152    1.6760522    2.2360737    2.4642185 
16815000     1.127724 -4.9134136e-05   0.54388558            0            0   0.54388558    1.6492964    2.1931819   -2.8381535 
16820000    1.1042722 -1.264497e-05   0.51151711            0            0   0.51151711    1.6149981    2.1265153   0.83167036 
16825000    1.1215037 4.9554625e-05   0.48241907            0            0   0.48241907    1.6401992    2.1226182    7.1970118 
16830000    1.1467862 5.0062412e-07   0.39685564            0            0   0.39685564    1.6771748    2.0740305    2.1252944 
16835000    1.0995474 -9.6121582e-05   0.51156536            0            0   0.51156536     1.608088    2.1196534   -7.7231966 
16840000    1.1603848 -5.0904467e-05   0.41662341            0            0   0.41662341    1.6970628    2.1136862   -3.0989312 
16845000    1.2533768 9.873102e-06   0.32876814            0            0   0.32876814    1.8330636    2.1618318    3.1728374 
16850000    1.1233571 2.3806699e-05   0.43525239            0            0   0.43525239    1.6429098    2.0781621    4.5159681 
16855000    1.0884572 -2.8639792e-05   0.50233142            0            0   0.50233142    1.5918687    2.0942001  -0.83851457 
16860000    1.1694702 -9.3588317e-05   0.40513199 0.0033692599            0   0.40176273    1.7103501    2.1154821   -7.4679615 
16865000      1.15866 -3.5055677e-05   0.45524409  0.008586943            0   0.44665715    1.6945403    2.1497844   -1.4399169 
16870000    1.1154816 2.6354309e-05   0.54163026 0.0085685016            0   0.53306176    1.6313919    2.1730221    4.8717034 
16875000    1.1787537 -4.1252496e-06    0.4366364  0.025106307            0   0.41153009    1.7239273    2.1605637    1.7381381 
16880000    1.1691997 -3.6076633e-06    0.5158156  0.010833436            0   0.50498216    1.7099545    2.2257701    1.8563454 
16885000    1.1684885 -3.3407039e-05   0.48082438  0.003395557            0   0.47742882    1.7089144    2.1897388    -1.231142 
16890000    1.1139924 -7.9406007e-05   0.54276427     0.023385            0   0.51937927    1.6292139    2.1719781    -5.959197 
16895000    1.0900299 7.2736248e-06   0.54680876  0.048009002            0   0.49879976    1.5941687    2.1409774    2.8857966 
16900000    1.1496771 3.4235787e-05   0.47127747   0.04547229            0   0.42580518    1.6814027    2.1526802    5.6584248 
16905000      1.17798 -2.0090979e-05   0.49399804  0.017411943            0    0.4765861    1.7227957    2.2167937   0.15947752 
16910000      1.08721 -5.4834179e-05   0.61355027   0.10472706            0   0.50882321    1.5900447     2.203595    -3.411425 
16915000     1.074081 3.604376e-05   0.62938635   0.12564784            0   0.50373851    1.5708435    2.2002299    5.8911109 
16920000    1.0815433 6.8685285e-05   0.64959991  0.068074358            0   0.58152555    1.5817571     2.231357    9.2647301 
16925000    1.1232577 -4.8806761e-05   0.56781153   0.12341359            0   0.44439794    1.6427644    2.2105759   -2.7872364 
16930000    1.2290569 -1.2599969e-05   0.40939516   0.01800492            0   0.39139024    1.7974958    2.2068909   0.91665414 
16935000    1.0022073 1.7376914e-05   0.74692858  0.028296559            0   0.71863202    1.4657282    2.2126568    3.9920528 
16940000    1.1677175 -8.2211991e-05   0.48786831  0.031312673            0   0.45655564    1.7077869    2.1956552   -6.2228526 
16945000    1.0796879 -4.5235934e-05   0.58372832 0.0066651061            0   0.57706321    1.5790435    2.1627718   -2.4693878 
16950000    1.2101271 0.00010886407   0.39560106 0.0017718839            0   0.39382918    1.7698109     2.165412    13.313093 
16955000    1.0997066 9.7181541e-05    0.5669789 0.0021055317            0   0.56487337    1.6083209    2.1752998     12.12669 
16960000    1.1840509 7.7577962e-05   0.45468048 0.0021540602            0   0.45252642    1.7316745     2.186355    10.130338 
16965000    1.1284278 3.2127982e-05    0.5627123  0.010397425            0   0.55231488    1.6503256    2.2130379    5.5029433 
16970000    1.1817408 -4.4581515e-05   0.46944493  0.035976838            0    0.4334681    1.7282959    2.1977408   -2.3674063 
16975000    1.0850863 -0.00013136612   0.55270889   0.05283329            0    0.4998756    1.5869387    2.1396476   -11.312243 
16980000    1.1900838 -9.6518311e-05   0.44908988  0.030031775            0    0.4190581    1.7404976    2.1895875   -7.6938876 
16985000    1.1323102 8.5204729e-06   0.54889919  0.013372344            0   0.53552684    1.6560037    2.2049029    3.0773993 
16990000    1.1229516 -1.4384516e-05   0.54654547 0.0011889363            0   0.54535654    1.6423167    2.1888622    0.7158878 
16995000    1.1742112 -4.3382805e-05   0.43754678  0.013738834            0   0.42380794    1.7172839    2.1548306   -2.2875686 
17000000    1.0968262 2.9526492e-05   0.51955349   0.02578076            0   0.49377273    1.6041084    2.1236619    5.1471746 
17005000    1.1126076 -2.3737639e-05   0.51066095  0.015211532            0   0.49544941    1.6271886    2.1378496  -0.29288466 
17010000    1.0049003 -3.2671921e-05   0.60826989  0.031921558            0   0.57634833    1.4696667    2.0779366   -1.2676681 
17015000    1.1355997 2.2433739e-06   0.39234343  0.054274037            0   0.33806939    1.6608146     2.053158    2.2828795 
17020000    1.1162826 5.5561488e-05   0.40262198  0.063332071            0   0.33928991    1.6325633    2.0351853    7.7246817 
17025000    1.0461928 4.7806902e-05   0.49336732  0.018225222            0    0.4751421     1.530057    2.0234243    6.9188511 
17030000    1.0604868 -1.3605607e-05   0.46255839 0.0015853052            0   0.46097308     1.550962    2.0135204   0.62030628 
17035000   0.99488778 -8.1362828e-05   0.56256547  0.020844655            0   0.54172081    1.4550234    2.0175888   -6.3139647 
17040000    1.1557749 -7.6456315e-05   0.32645632  0.016591146            0   0.30986517    1.6903208    2.0167771   -5.8123495 
17045000    1.1537852 1.6113329e-06   0.31620354 0.0021608554            0   0.31404269    1.6874108    2.0036143    2.1686148 
17050000    1.0155672 1.3536105e-05   0.51972896  0.024576369            0   0.49515259    1.4852671     2.004996    3.3910931 
17055000    1.0176094 5.1954076e-05   0.53497882   0.02893643            0   0.50604239    1.4882537    2.0232325    7.3433299 
17060000    1.0111823 5.3476821e-05   0.56196966 0.0033254454            0   0.55864421    1.4788541    2.0408238    7.5168502 
17065000    1.0932824 4.0106457e-06   0.45244319 0.00060158206            0   0.45184161    1.5989255    2.0513687    2.4620588 
17070000     1.090547 -3.7218259e-06   0.46245432 0.0027975447            0   0.45965678     1.594925    2.0573793    1.6762643 
17075000     1.109995 -7.3860816e-06   0.45625746  0.005229865            0    0.4510276    1.6233677    2.0796251    1.3232904 
17080000    1.1087611 -5.0303466e-05   0.41623228 0.0026363922            0   0.41359589     1.621563    2.0377953   -3.1132796 
17085000    1.1166312 -3.1766288e-05   0.41277698 0.0014329399            0   0.41134404    1.6330731    2.0458501   -1.2070178 
17090000    1.0565428 -6.2353447e-06   0.54460829  0.016531382            0   0.52807691    1.5451939    2.0898022    1.4513029 
17095000   0.99663213 -9.6774959e-05   0.62319372  0.042023424            0   0.58117029    1.4575745    2.0807682   -7.8289876 
17100000    1.0715358 -9.7410961e-05   0.53288739  0.038597891            0   0.49428949    1.5671211    2.1000085   -7.8748739 
17105000    1.1447077 -1.5154252e-05    0.4371578  0.002144543            0   0.43501325     1.674135    2.1112928   0.55949732 
17110000    1.0841071 -1.3599548e-05   0.51777625  0.008508153            0    0.5092681    1.5855066    2.1032829   0.71068915 
17115000    1.1282669 2.2136074e-05   0.45359214  0.029142661            0   0.42444948    1.6500903    2.1036824    4.3704164 
17120000    1.0772573 1.1063857e-05   0.45642751  0.021610238            0   0.43481727    1.5754888    2.0319163    3.1648553 
17125000    1.0110322 -3.213008e-05   0.52907138  0.034362591            0   0.49470879    1.4786346     2.007706   -1.2824142 
17130000    1.0983509 2.7060629e-05   0.36380982  0.008001449            0   0.35580837    1.6063382    1.9701481    4.7411565 
17135000    1.0287125 5.3503513e-05   0.43720869 0.00068901987            0   0.43651967     1.504492    1.9417007    7.4204604 
17140000   0.92772809 -5.7839519e-06   0.56352273 0.0051360875            0   0.55838664    1.3568023    1.9203251    1.3280484 
17145000   0.90772065 1.6828792e-05   0.56224282  0.010976354            0   0.55126647    1.3275415    1.8897843    3.6130526 
17150000   0.97378369 4.3599909e-06   0.43135281  0.012767345            0   0.41858546    1.4241586    1.8555114    2.3019745 
17155000   0.93064082 1.9935845e-05   0.44412125  0.018928853            0   0.42519239    1.3610622    1.8051834    3.8466139 
17160000   0.93594171 2.8519679e-05   0.46989411  0.038887365            0   0.43100675    1.3688147    1.8387089     4.759124 
17165000    1.0488617 2.4474155e-05   0.28362585 0.0077940684            0   0.27583178    1.5339603    1.8175861    4.3237396 
17170000   0.87672273 3.6799509e-05   0.50949176 0.0011771107            0   0.50831465     1.282207    1.7916988    5.5599685 
17175000   0.94418278 6.1783778e-06   0.40467626 0.00076965159            0   0.40390661    1.3808673    1.7855436    2.4182095 
17180000   0.94110296 -1.9734404e-06    0.4422308 0.0061344634            0   0.43609634    1.3763631    1.8185939    1.6165136 
17185000   0.90105397 -5.0305821e-05   0.51193242  0.017168956            0   0.49476347    1.3177914    1.8297239   -3.3215923 
17190000    1.0261106 -4.8652825e-05   0.32056411  0.016530822            0   0.30403328    1.5006867    1.8212508   -3.1607984 
17195000   0.88850967 1.4497382e-05   0.53215766  0.026787861            0    0.5053698    1.2994454    1.8316031     3.316135 
17200000    0.9722895 2.243209e-06   0.41198249   0.02443248            0   0.38755001    1.4219734    1.8339559    2.0636605 
17205000   0.94707798 -6.8499438e-06   0.44513854 0.0029120263            0   0.44222652    1.3851015    1.8302401    1.1288058 
17210000   0.96161899 -5.6652994e-05   0.41757819  0.017621307            0   0.39995689    1.4063678     1.823946   -3.9773206 
17215000   0.89587392 7.9392669e-06   0.49997631  0.058919992            0   0.44105632    1.3102156    1.8101919    2.6231728 
17220000   0.79888625 7.6132578e-05   0.68391718  0.015209483            0   0.66870769    1.1683711    1.8522883    9.6482644 
17225000    1.1260147 3.2153996e-05   0.20307115  0.011026295            0   0.19204485    1.6467965    1.8498676    5.1424368 
17230000   0.96804199 -3.1212881e-05   0.44172239 0.0040713608            0   0.43765103    1.4157614    1.8574838   -1.3387152 
17235000   0.86707387 -3.1489774e-05   0.58257744  0.013437459            0   0.56913998    1.2680955     1.850673   -1.3738799 
17240000   0.85628922 -3.1467122e-05   0.55179104  0.095365734            0   0.45642531     1.252323     1.804114   -1.4181192 
17245000   0.89081045 -4.9501302e-05   0.50932099  0.055342714            0   0.45397827    1.3028103    1.8121313    -3.256802 
17250000    1.0082558 -1.6520302e-05   0.35609985  0.031630993            0   0.32446886     1.474574    1.8306739     0.138995 
17255000   0.89480456 5.323232e-05    0.5153989 0.0093053807            0   0.50609352    1.3086517    1.8240506    7.2750401 
17260000   0.92181222 8.4453599e-05    0.4757886   0.01093013            0   0.46485847    1.3481504     1.823939    10.471987 
17265000   0.96478964 7.0082281e-05   0.40116789  0.021590133            0   0.37957776    1.4110049    1.8121727    8.9885983 
17270000   0.84555826 -2.0237154e-06   0.55141444  0.018936078            0   0.53247837     1.236629    1.7880434    1.5808149 
17275000    1.0074914 -9.6981884e-05   0.35050714   0.00387948            0   0.34662766    1.4734561    1.8239633   -8.1069817 
17280000   0.87444352 -5.670865e-05   0.53380916 0.0024730917            0   0.53133607    1.2788736    1.8126828    -3.994283 
17285000   0.92807289 4.4194074e-05   0.45568385  0.048468869            0   0.40721498    1.3573066    1.8129905    6.3384637 
17290000   0.93909236 -6.5632977e-06   0.41096175   0.05328436            0   0.35767739    1.3734226    1.7843843    1.1123026 
17295000   0.86227872 -6.2136263e-05   0.47459344   0.02616681            0   0.44842663    1.2610826    1.7356761   -4.6270773 
17300000   0.87682568 2.0438598e-05    0.4503268  0.003436603            0    0.4468902    1.2823576    1.7326844    3.8255968 
17305000   0.83528902 5.0043231e-05   0.47554329  0.005300761            0   0.47024252    1.2216102    1.6971535    6.8215804 
17310000     0.938397 1.5566341e-05   0.35961286  0.017818483            0   0.34179438    1.3724056    1.7320185    3.3260117 
17315000   0.91935404 3.2548795e-05   0.39643884 0.0085070492            0   0.38793179    1.3445553    1.7409941    5.0739908 
17320000   0.93714966 1.4145411e-05   0.39170663 0.00051149596            0   0.39119513    1.3705814     1.762288     3.210778 
17325000    0.8579455 -4.6958172e-05   0.50041138 0.00034101983            0   0.50007036    1.2547453    1.7551567   -3.0533602 
17330000   0.98394373 7.5527099e-06   0.31702261 0.00085484309            0   0.31616776    1.4390177    1.7560403    2.5294378 
17335000   0.87197177 8.2285755e-05   0.49270798 0.0047943428            0   0.48791364    1.2752587    1.7679667    10.194028 
17340000   0.87560394 2.4760873e-05   0.47888993  0.028062162            0   0.45082777    1.2805708    1.7594607    4.2949741 
17345000   0.87214503 -4.4476528e-05   0.45553114  0.017340084            0   0.43819106    1.2755121    1.7310433   -2.8233532 
17350000   0.78786282 -4.8895192e-05   0.60462468  0.059151542            0   0.54547314    1.1522494    1.7568741   -3.2499936 
17355000   0.89172287 -6.7794837e-05   0.42194983   0.04389211            0   0.37805772    1.3041447    1.7260945   -5.2160968 
17360000   0.81757571 -6.7392625e-05   0.53712275  0.074553369            0   0.46256938    1.1957045    1.7328272   -5.1681776 
17365000   0.86802598 2.5903742e-05   0.47169658  0.014399029            0   0.45729755     1.269488    1.7411846    4.3937278 
17370000   0.86987876 5.3049872e-05     0.461871 0.00082435759            0   0.46104664    1.2721977    1.7340687    7.1663756 
17375000   0.81359916 9.4352605e-06   0.59493859 0.00081975433            0   0.59411884    1.1898888    1.7848274     2.750998 
17380000   0.92994973 -3.3221887e-05   0.41484722 0.0010579086            0   0.41378931    1.3600515    1.7748987   -1.6270225 
17385000   0.87354989 -2.1284351e-05   0.50944803 0.0030423469            0   0.50640568    1.2775667    1.7870147   -0.3925028 
17390000   0.95760285 7.9853257e-05   0.41681208 0.0032401908            0   0.41357189    1.4004942    1.8173063    9.9942798 
17395000   0.82316169 6.5152784e-05   0.62763006  0.094319479            0   0.53331058     1.203874     1.831504    8.5031491 
17400000   0.90776027 -3.923399e-05    0.4883161  0.029500757            0   0.45881534    1.3275994    1.8159155   -2.2016451 
17405000   0.83648933 2.0651114e-05     0.593283  0.014571814            0   0.57871119    1.2233656    1.8166487    3.9313227 
17410000   0.89795895 -7.2747713e-05   0.52010259 0.0081810506            0   0.51192153     1.313265    1.8333676   -5.6159983 
17415000   0.87519107 -8.2923051e-05   0.56753274  0.010587897            0   0.55694485    1.2799669    1.8474997   -6.6438207 
17420000    1.0069804 -8.8144801e-06   0.35924269  0.017747255            0   0.34149544    1.4727089    1.8319516   0.92934883 
17425000   0.99043379 2.0729788e-05   0.36960394   0.01936786            0   0.35023608    1.4485094    1.8181134    3.9408437 
17430000   0.85621035 3.8465503e-05   0.51976484  0.059510806            0   0.46025403    1.2522076    1.7719725      5.71084 
17435000    0.8763577 8.5458362e-05   0.50441327  0.066756852            0   0.43765642    1.2816731    1.7860864    10.537023 
17440000   0.83344169 3.5108076e-05   0.56655816  0.030039533            0   0.53651862    1.2189085    1.7854666    5.3805336 
17445000   0.91684527 -3.5643707e-05   0.41915371  0.012899728            0   0.40625398    1.3408862    1.7600399   -1.8898757 
17450000   0.94839229 4.8008938e-05   0.41036793 0.0054088143            0   0.40495911    1.3870237    1.7973916    6.7135069 
17455000   0.88990836 7.0176592e-05   0.48489637  0.014194304            0   0.47070206     1.301491    1.7863873    8.9724704 
17460000      0.95714 4.1742769e-05   0.35381957 0.0065878309            0   0.34723174    1.3998172    1.7536368    6.0280963 
17465000    0.8957635 -5.1214634e-06   0.40653129 0.00013667144            0   0.40639462    1.3100541    1.7165854    1.1921476 
17470000   0.84821183 -2.7788151e-05   0.47332083 0.0001273405            0   0.47319349    1.2405098    1.7138306    -1.131676 
17475000   0.86081859 -8.5711392e-06   0.49545104  0.011760452            0   0.48369059    1.2589472    1.7543982   0.87671357 
17480000    0.7493441 -5.8877253e-05   0.64296491  0.035370572            0   0.60759434    1.0959157    1.7388807     -4.29015 
17485000   0.79165123 -2.0364993e-05   0.58489933  0.051393044            0   0.53350629    1.1577899    1.7426893  -0.34268603 
17490000   0.82135304 -9.3592502e-05   0.55424436  0.026188999            0   0.52805536    1.2012288    1.7554732    -7.828399 
17495000   0.87938896 -9.026559e-05   0.52170094 0.0035198229            0   0.51818112    1.2861064    1.8078073   -7.4353891 
17500000   0.90917869 5.386019e-05   0.47264232 0.0020677535            0   0.47057457    1.3296738    1.8023162    7.3175996 
17505000   0.91378611 0.00011910007    0.4555224 0.00010787824            0   0.45541452    1.3364122    1.7919346    13.987782 
17510000   0.94993594 8.8417243e-05   0.44710617            0            0   0.44710617    1.3892813    1.8363875    10.890313 
17515000   0.99969134 3.7161013e-05   0.39798033 0.00044359919            0   0.39753673    1.4620486    1.8600289    5.6653166 
17520000    1.0014638 -2.3065744e-05    0.3730867  0.009532067            0   0.36355463    1.4646408    1.8377275  -0.52420469 
17525000    1.0100779  2.71094e-05   0.38162678  0.017546809            0   0.36407997     1.477239    1.8588658    4.6348684 
17530000   0.92234245 7.6828186e-05   0.49889549 0.0044813006            0   0.49441419    1.3489258    1.8478213    9.7150276 
17535000   0.93389953 -7.2276933e-06     0.471222   0.04565364            0   0.42556836    1.3658281    1.8370501    1.0969343 
17540000   0.94170997 -8.5828208e-05   0.48061881  0.040394316            0   0.44022449    1.3772508    1.8578696   -6.9309389 
17545000   0.87831583 -5.2787857e-05   0.56133096 0.0035692726            0   0.55776169    1.2845369    1.8458679   -3.5596086 
17550000   0.94014948 -3.584575e-05   0.48237904 0.00019942755            0   0.48217962    1.3749686    1.8573477   -1.8132572 
17555000    1.0010315 1.7649173e-05   0.37287537 0.0010123188            0   0.37186305    1.4640086    1.8368839    3.6441593 
17560000   0.93708371 6.3127946e-05   0.47138094 0.0072482044            0   0.46413274    1.3704849    1.8418659    8.3061675 
17565000   0.89911944 2.2385608e-05   0.52513423  0.026234068            0   0.49890016    1.3149622    1.8400964    4.1323827 
17570000   0.92232204 9.6219685e-06   0.45115277  0.034051721            0   0.41710105     1.348896    1.8000488    2.7853383 
17575000   0.92908029 -2.3897846e-05   0.44732493  0.011838648            0   0.43548628    1.3587799    1.8061049  -0.64103462 
17580000   0.89980597 -7.2281292e-05   0.50435302  0.021938289            0   0.48241473    1.3159662    1.8203192    -5.581285 
17585000    1.0165136 -3.1758682e-05   0.36070747  0.016519781            0   0.34418769    1.4866511    1.8473586   -1.4047305 
17590000   0.98596272 4.4084057e-05   0.42082085  0.029231084            0   0.39158977    1.4419705    1.8627913    6.3769987 
17595000   0.93831673 1.560999e-05   0.44575243  0.023479673            0   0.42227276    1.3722882    1.8180406    3.4165036 
17600000   0.95895866 -0.00010408473    0.4010939 0.0038351327            0   0.39725876     1.402477    1.8035709   -8.8547055 
17605000   0.84197386 -0.00011899216   0.54968708 0.0022773616            0   0.54740972    1.2313868    1.7810739   -10.403723 
17610000   0.93588137 -7.3516495e-06   0.33523083  0.032845607            0   0.30238522    1.3687265    1.7039573   0.95114843 
17615000   0.83193066 -3.5142551e-06   0.49576845  0.045514045            0    0.4502544    1.2166986     1.712467    1.3526073 
17620000    1.0220586 -3.4587908e-05    0.2437028 0.0025012258            0   0.24120157    1.4947606    1.7384634   -1.8033383 
17625000   0.90665075 -1.4004755e-05    0.4336822 0.0061290169            0   0.42755318    1.3259767    1.7596589   0.32557206 
17630000   0.92297752 2.2805897e-05   0.43754446  0.014183007            0   0.42336145    1.3498546    1.7873991    4.1227229 
17635000   0.88799639 9.8049521e-05     0.479252  0.011146787            0   0.46810522    1.2986947    1.7779467    11.818218 
17640000    0.9519391 7.3542503e-05    0.3849938 0.0040609767            0   0.38093282    1.3922109    1.7772047     9.307957 
17645000   0.93461676 -1.5406859e-05   0.39927022 0.0034483948            0   0.39582183     1.366877    1.7661472    0.1884849 
17650000    0.9187403 1.7243834e-05   0.40943732 0.0017191902            0   0.40771813    1.3436577     1.753095    3.5188636 
17655000   0.91395275 5.1207278e-06   0.39222341 0.00049557274            0   0.39172784    1.3366559    1.7288793    2.2532418 
17660000   0.79623215 -7.5199736e-05    0.5240207 0.0087267279            0   0.51529397    1.1644895    1.6885102   -6.0119428 
17665000   0.90691603 2.1988546e-05   0.39523683  0.046827282            0   0.34840955    1.3263647    1.7216015    3.9732286 
17670000    0.8454619 1.5922327e-05   0.48255282  0.052509045            0   0.43004378     1.236488    1.7190408    3.3494871 
17675000   0.82907925 -6.062676e-05   0.52645746 0.0082911818            0   0.51816627    1.2125284    1.7389859   -4.4691944 
17680000   0.88440404 3.144306e-05   0.43201283  0.032634095            0   0.39937874    1.2934409    1.7254537    4.9452231 
17685000   0.76384173 1.2880342e-05    0.5854685  0.041096059            0   0.54437244    1.1171185     1.702587    3.0215341 
17690000   0.92035364 -2.1047372e-05   0.41320459  0.065264182            0   0.34794041    1.3460172    1.7592218   -0.3960291 
17695000   0.93470495 2.5897712e-05   0.38144411 0.0040878485            0   0.37735626     1.367006    1.7484501    4.4003758 
17700000   0.92935154 -6.0100118e-06   0.40826718 0.00097813961            0   0.40728904    1.3591766    1.7674438    1.1520186 
17705000   0.90277078 8.1857534e-05   0.42749347  0.027003407            0   0.40049006    1.3203023    1.7477957    10.130007 
17710000    0.8385141 6.040978e-05   0.51994793   0.10935158            0   0.41059634    1.2263269    1.7462748    7.9322363 
17715000   0.81379395 -3.5070975e-05      0.51839  0.029119237            0   0.48927077    1.1901736    1.7085637   -1.8827042 
17720000   0.92608677 -5.3440873e-05   0.34891333 0.0017921634            0   0.34712116    1.3544019    1.7033152   -3.7690302 
17725000   0.87315911 -2.9513879e-05   0.34761077  0.009672362            0   0.33793841    1.2769952     1.624606   -1.3976152 
17730000   0.72817742 -8.227873e-07   0.58174309  0.048327325            0   0.53341576    1.0649595    1.6467026    1.5624491 
17735000   0.83047252 8.7341797e-06   0.42357623  0.010933894            0   0.41264233    1.2145661    1.6381423    2.5325223 
17740000   0.88616899 1.913629e-05   0.31136878 0.0039229548            0   0.30744582    1.2960222    1.6073909    3.5669471 
17745000   0.79169233 -2.0501097e-05   0.49412429  0.002799556            0   0.49132474      1.15785    1.6519743  -0.44733803 
17750000   0.87948812 -4.1048745e-05    0.3498512 0.00074071282            0   0.34911049    1.2862514    1.6361026   -2.5672889 
17755000   0.88430094 -2.8581732e-05   0.37426648            0            0   0.37426648    1.2932901    1.6675566   -1.2592127 
17760000   0.78958448 -2.8110228e-06     0.518522 1.9834413e-05            0   0.51850216    1.1547673    1.6732893    1.3854406 
17765000   0.89777329 -4.2639129e-05   0.36464659 0.00077112012            0   0.36387547    1.3129934      1.67764   -2.6886068 
17770000   0.87680444 -4.5314295e-05   0.38319445 0.0049408696            0   0.37825359    1.2823265     1.665521   -2.9746629 
17775000   0.82029317 2.4550519e-05   0.43407776  0.018367737            0   0.41571002    1.1996788    1.6337565    4.1477297 
17780000   0.79896334 4.058121e-05   0.45294547  0.026011211            0   0.42693426    1.1684839    1.6214293    5.7769452 
17785000   0.81579516 3.8901097e-05   0.44455144  0.021475789            0   0.42307565    1.1931004    1.6376519    5.6211241 
17790000   0.82554276 1.696418e-06   0.41484037  0.013400013            0   0.40144035    1.2073563    1.6221967    1.7959099 
17795000    0.8658735 -3.0656096e-05   0.34298009 0.0024654946            0   0.34051459      1.26634    1.6093201   -1.5298641 
17800000    0.7686158 -1.1612853e-05   0.47138087 0.0021747253            0   0.46920614    1.1241006    1.5954815   0.40632532 
17805000   0.88480165 1.1327789e-05   0.30387482 0.0014412791            0   0.30243354    1.2940224    1.5978972    2.7578629 
17810000   0.82916061 1.6800586e-05   0.40965806 0.00024013925            0   0.40941793    1.2126474    1.6223055    3.3426855 
17815000   0.93718584 1.8876838e-05   0.28703811  0.000431285            0   0.28660682    1.3706343    1.6576724    3.5906606 
17820000   0.86895707 -2.5417959e-05   0.40132333 0.0092353577            0   0.39208797    1.2708497    1.6721731  -0.93062599 
17825000   0.84783344 2.1652862e-05   0.44462045   0.02129222            0   0.42332823    1.2399564    1.6845768    3.9018299 
17830000   0.81645547 9.3590586e-05   0.49948536 0.0086321987            0   0.49085316    1.1940661    1.6935515    11.277227 
17835000   0.86892378 3.1072096e-05    0.4111797 0.0046137432            0   0.40656596     1.270801    1.6819807    4.8637633 
17840000   0.90742189 -4.5038127e-06   0.42694806 0.0036820892            0   0.42326597    1.3271045    1.7540526    1.2928621 
17845000   0.88976747 -3.493793e-05   0.48480036 0.0011355484            0   0.48366481    1.3012849    1.7860853   -1.7915587 
17850000   0.94114896 -4.1414108e-05   0.42003581 6.4907164e-05            0    0.4199709    1.3764304    1.7964662   -2.4443385 
17855000    1.0580636 -4.76027e-05   0.24706426 0.00046035535            0    0.2466039    1.5474181    1.7944823   -3.0800342 
17860000   0.90805811 -4.0943863e-05   0.45642208 0.0046696527            0   0.45175242     1.328035    1.7844571   -2.4081945 
17865000   0.88186341 4.5142519e-05   0.49417347  0.010399571            0    0.4837739    1.2897252    1.7838987    6.4064926 
17870000   0.93703505 0.00010842718   0.40870801  0.022601533            0   0.38610647    1.3704138    1.7791218    12.882065 
17875000   0.93607558 7.8446548e-05   0.39153359  0.018552921            0   0.37298067    1.3690105    1.7605441    9.7934707 
17880000   0.97595898 1.0304126e-05    0.3855014    0.0210064            0     0.364495      1.42734    1.8128414    2.8679839 
17885000   0.87311589 -3.9370072e-05   0.50365469  0.024388852            0   0.47926584     1.276932    1.7805867   -2.2509087 
17890000   0.89818633 -8.8910634e-05   0.44427399 0.0040302347            0   0.44024375    1.3135975    1.7578715   -7.3465775 
17895000   0.89224683 -2.8647527e-05   0.42274223 0.0029714162            0   0.41977081     1.304911    1.7276532   -1.2058536 
17900000   0.89176979 1.2666808e-05   0.43159308 0.0026093542            0   0.42898373    1.3042133    1.7358064    3.0328876 
17905000   0.92148523 -4.5242514e-05   0.42883514  0.010889842            0    0.4179453    1.3476721    1.7765073   -2.8563261 
17910000   0.92700808 2.2431032e-06   0.44513748   0.03469445            0   0.41044303    1.3557493    1.8008868    2.0305806 
17915000    0.8768611 4.6881641e-05   0.49402699  0.020295447            0   0.47373155    1.2824094    1.7764364    6.5771164 
17920000   0.91436855 -4.1666872e-05    0.4310827   0.01526116            0   0.41582154     1.337264    1.7683467    -2.498341 
17925000   0.94839229 -2.4044588e-05   0.34289475 0.0091043274            0   0.33379042    1.3870237    1.7299185  -0.73224735 
17930000   0.87605673 1.837436e-05   0.46046454 0.0033140959            0   0.45715045     1.281233    1.7416975     3.623232 
17935000   0.94385388 3.1023451e-05   0.42320524 0.00036446159            0   0.42284078    1.3803863    1.8035915    4.9803929 
17940000    1.0020983 4.2891128e-05   0.33235943 0.0042441826            0   0.32811525    1.4655687    1.7979281    6.1899797 
17945000   0.94134698 -1.5704738e-06   0.45348889   0.01246648            0   0.44102241      1.37672    1.8302089    1.6693923 
17950000   0.96186529 8.5568835e-06   0.39643111  0.013020261            0   0.38341084     1.406728    1.8031591     2.679384 
17955000    0.9483486 2.4021721e-05   0.42137587 0.0084735247            0   0.41290234    1.3869598    1.8083357    4.2681599 
17960000   0.92779618 3.3710482e-05   0.46542509  0.022091691            0    0.4433334    1.3569019     1.822327    5.2742803 
17965000    0.9735447 7.2732158e-05   0.36418972 0.0059452671            0   0.35824445    1.4238091    1.7879988    9.2357719 
17970000   0.99521102 -1.4007648e-05   0.31346722 9.8153606e-06            0    0.3134574    1.4554961    1.7689633   0.33458019 
17975000   0.91792251 -9.1416989e-05   0.42703562 5.8109231e-05            0   0.42697751    1.3424617    1.7694973   -7.5916024 
17980000   0.94145384 -1.9345195e-05   0.41464464  0.005462136            0   0.40918251    1.3768762    1.7915209  -0.18942705 
17985000   0.85712927 -2.9748999e-05   0.51561517  0.023310354            0   0.49230482    1.2535516    1.7691667   -1.2771308 
17990000   0.93389083 -7.4953993e-05   0.40776153 0.0064660455            0   0.40129549    1.3658153    1.7735769    -5.901712 
17995000   0.90332489 -7.3881251e-05   0.44138764 0.00026322082            0   0.44112441    1.3211127    1.7625003   -5.8029398 
18000000    0.9028989 -3.5472097e-05   0.45075701            0            0   0.45075701    1.3204896    1.7712467   -1.8610961 
18005000   0.86270287 -2.1923143e-05   0.50738632            0            0   0.50738632    1.2617029    1.7690893   -0.4758406 
18010000   0.98444716 3.7924986e-06   0.32512316            0            0   0.32512316     1.439754    1.7648771     2.153229 
18015000   0.83837676 4.142126e-05   0.55893567 0.00023844209            0   0.55869723     1.226126    1.7850617    6.0265987 
18020000    0.9263183 2.2902778e-05   0.40241151 0.0039501549            0   0.39846136    1.3547405     1.757152    4.1023964 
18025000   0.95558682 -3.4886801e-05   0.32465303  0.015216572            0   0.30943646    1.3975457    1.7221988   -1.8502097 
18030000   0.89695562 -6.6547528e-05   0.40583466  0.013774405            0   0.39206025    1.3117976    1.7176323   -5.0968346 
18035000   0.93660013 -7.5584438e-06   0.38831991  0.012237401            0   0.37608251    1.3697777    1.7580976   0.98411295 
18040000   0.85132466 1.886222e-05   0.50180432 0.0096282403            0   0.49217608    1.2450623    1.7468666     3.678358 
18045000   0.97226366 -1.7286861e-05   0.34110316 0.0015762045            0   0.33952696    1.4219356    1.7630388 -0.0071358355 
18050000   0.96443377 5.8992311e-05   0.37187154            0            0   0.37187154    1.4104844    1.7823559    7.8231686 
18055000    0.8817303 -2.4683172e-05   0.45647988            0            0   0.45647988    1.2895306    1.7460104   -0.7815464 
18060000   0.91737898 3.1120072e-05   0.44501023            0            0   0.44501023    1.3416668     1.786677    4.9733723 
18065000    1.0390534 2.4974089e-05   0.28240055            0            0   0.28240055    1.5196156    1.8020162    4.3593629 
18070000   0.99553628 -5.5847213e-05   0.34274896 0.0056072713            0   0.33714169    1.4559718    1.7987208   -3.9200338 
18075000   0.90217992 5.0136225e-05   0.51834076  0.074071765            0   0.44426899    1.3194381    1.8377789    6.9717283 
18080000   0.91827132 9.6207912e-06   0.48093127  0.058696863            0   0.42223441    1.3429718    1.8239031    2.8090721 
18085000     1.000025 -2.8580637e-05   0.38068956  0.013713257            0    0.3669763    1.4625366    1.8432262   -1.0834311 
18090000   0.88774112 3.8230405e-05    0.5575588  0.032486389            0   0.52507241    1.2983214    1.8558802    5.7706736 
18095000   0.94534343 1.5994862e-05     0.504101  0.023457183            0   0.48064381    1.3825648    1.8866658    3.5245396 
18100000   0.93967289 5.0214339e-05   0.53212783  0.007928078            0   0.52419975    1.3742716    1.9063994    7.0483477 
18105000    1.0035595 2.7979151e-05   0.37373559            0            0   0.37373559    1.4677058    1.8414414    4.7065065 
18110000   0.96145257 -1.5154135e-05   0.40955831            0            0   0.40955831    1.4061244    1.8156827   0.26389922 
18115000   0.95710886 -4.0238788e-05   0.42025103 0.0037683342            0    0.4164827    1.3997717    1.8200227   -2.3004291 
18120000    1.0112425 -7.012094e-06   0.34857791 0.0072993382            0   0.34127857    1.4789421      1.82752    1.1094816 
18125000   0.96505574 6.6308773e-05   0.46368742 0.0011794642            0   0.46250795     1.411394    1.8750814    8.6650998 
18130000   0.95487546 6.494809e-06   0.44012794 0.00037037928            0   0.43975756    1.3965054    1.8366333    2.5017017 
18135000   0.97244265 3.3466681e-06   0.39397869  0.038941074            0   0.35503762    1.4221974    1.8161761    2.1588749 
18140000   0.85165174 3.5056144e-05   0.58208529  0.037643823            0   0.54444146    1.2455407     1.827626    5.4173751 
18145000   0.99247681 -5.1161929e-05   0.31824966   0.01176379            0   0.30648587    1.4514973     1.769747   -3.4692346 
18150000   0.98203133 -0.00010373186   0.37349718  0.014587981            0    0.3589092    1.4362208     1.809718   -8.8124247 
18155000   0.94034592 -3.8790221e-05     0.425304   0.01845484            0   0.40684916    1.3752559    1.8005599   -2.1715587 
18160000   0.91619948 2.1057448e-06   0.46097257   0.03693309            0   0.42403948    1.3399417    1.8009143    2.0165426 
18165000   0.97891295 -1.6255083e-05   0.38254735  0.022545666            0   0.36000169    1.4316602    1.8142075   0.14968704 
18170000   0.98665953 5.6196603e-05   0.37819878  0.015575261            0   0.36262352    1.4429896    1.8211883    7.5757205 
18175000    1.0012359 3.6999737e-05   0.36555948 0.0028010994            0   0.36275838    1.4643075     1.829867    5.6186401 
18180000   0.89235891 -1.0478238e-05   0.47925675  0.033202007            0   0.44605474    1.3050749    1.7843317   0.71136011 
18185000   0.97146155 -2.3851131e-05   0.38989357  0.051495462            0    0.3383981    1.4207625    1.8106561  -0.63169977 
18190000    0.9361812 -2.0787997e-05   0.42507505 0.0093417907            0   0.41573325     1.369165      1.79424  -0.33445086 
18195000   0.92832078 3.7367356e-05   0.42344815            0            0   0.42344815    1.3576691    1.7811173    5.6075345 
18200000   0.86352106 -2.4360075e-05   0.47771142 0.0024374647            0   0.47527395    1.2628996     1.740611  -0.75386072 
18205000   0.93878689 -1.6344516e-05   0.38967491 0.0022425523            0   0.38743236    1.3729758    1.7626507  0.088972337 
18210000   0.90854833 -4.7766697e-05   0.43086802 5.3907489e-05            0   0.43081411    1.3287519    1.7596199   -3.1316898 
18215000    1.0495714 -1.444572e-05   0.25555276            0            0   0.25555276    1.5349982     1.790551   0.31130922 
18220000   0.96430348 -2.1891422e-05   0.41215532 0.0011539578            0   0.41100137    1.4102938    1.8224492  -0.41923247 
18225000    0.9087055 -0.00010331388   0.45271808  0.009971603            0   0.44274648    1.3289818    1.7816999   -8.7976413 
18230000    0.9646069 -4.4217268e-05   0.40411764  0.014056844            0   0.39006079    1.4107376    1.8148552    -2.712993 
18235000   0.93946026 8.1209365e-05   0.43385281  0.003403441            0   0.43044937    1.3739606    1.8078134    10.123652 
18240000   0.99146313 4.0824659e-05   0.38635779   5.0577e-05            0   0.38630721    1.4500148    1.8363726    6.0168177 
18245000    0.9793219 -7.080542e-05   0.42602441            0            0   0.42602441    1.4322583    1.8582827   -5.3921923 
18250000   0.89366881 -3.4002348e-05   0.57076351  0.045577887            0   0.52518562    1.3069906    1.8777541   -1.6040863 
18255000   0.98184466 1.7720899e-05   0.42946933  0.083517569            0   0.34595177    1.4359478    1.8654171    3.6800373 
18260000   0.97300369 3.7890635e-05   0.43274648  0.057713862            0   0.37503262    1.4230179    1.8557644    5.7357654 
18265000   0.91661227 2.1990527e-05   0.53074311 0.0058435666            0   0.52489955    1.3405454    1.8712886    4.1231185 
18270000     1.071565 -4.1756417e-06   0.35447171  0.013345888            0   0.34112582    1.5671638    1.9216355    1.4940498 
18275000    1.0021408 2.0886525e-05   0.50013262 0.0076698558            0   0.49246276    1.4656309    1.9657635    4.1045437 
18280000    1.0710955 3.1602094e-06     0.441133 0.0060064032            0    0.4351266    1.5664771    2.0076101    2.3312156 
18285000     1.016089 -4.5840036e-05   0.53158487  0.018003387            0   0.51358149    1.4860301     2.017615   -2.6764047 
18290000    1.0963724 3.107976e-05   0.38433134  0.019283048            0   0.36504829    1.6034446     1.987776    5.1703434 
18295000    1.0327567 8.820155e-05   0.48778076  0.013701197            0   0.47407957    1.5104066    1.9981874    11.030026 
18300000    1.0632475 6.1344378e-06    0.4404529  0.011100497            0    0.4293524    1.5549995    1.9954524    2.6236188 
18305000    0.9581846 -4.1053711e-05   0.54220861 0.0051243895            0   0.53708422     1.401345    1.9435536   -2.2603465 
18310000   0.96961087 -2.1475423e-05    0.4898377 0.00042090721            0   0.48941679    1.4180559    1.9078936  -0.29118967 
18315000    1.0932912 4.6335449e-05   0.33814284 0.0064681278            0   0.33167472    1.5989384    1.9370813    6.6818312 
18320000    1.0494449 2.2944078e-05   0.40079066  0.018448516            0   0.38234214    1.5348132    1.9356039    4.2850775 
18325000    1.0264495 4.2277766e-05   0.47612474  0.016244524            0   0.45988021    1.5011824    1.9773072    6.3065504 
18330000     1.003723 7.8565762e-05   0.51137222 0.0028674529            0   0.50850477    1.4679449    1.9793172    10.024451 
18335000    1.1597123 2.3024169e-05   0.29204944            0            0   0.29204944    1.6960793    1.9881287    4.3458037 
18340000   0.99277002 -4.3783264e-05   0.56060384            0            0   0.56060384    1.4519262      2.01253   -2.4708762 
18345000    1.0607019 -3.9515792e-05   0.50608593            0            0   0.50608593    1.5512765    2.0573625   -1.9890546 
18350000    1.2052077 1.9622901e-05   0.30440799 0.0023637556            0   0.30204423    1.7626163    2.0670243    4.0764093 
18355000   0.98541986 4.0534981e-05   0.61707479   0.13785292            0   0.47922187    1.4411765    2.0582513    6.2090334 
18360000    1.0535008 -3.8283579e-05   0.50928145  0.054543306            0   0.45473814    1.5407449    2.0500264   -1.8702121 
18365000    1.0683235 -3.9741044e-05    0.5334527  0.072245315            0   0.46120738    1.5624231    2.0958758    -1.973607 
18370000    1.1284727 1.532295e-05   0.43213307  0.081266369            0    0.3508667    1.6503913    2.0825244    3.6515944 
18375000    1.1183551 3.4896227e-05   0.47323562  0.011825537            0   0.46141008    1.6355944      2.10883    5.6822036 
18380000    1.2013013 7.5194277e-05   0.37530331    0.0397689            0   0.33553441    1.7569031    2.1322064    9.8321004 
18385000    1.1262297 5.7080175e-05   0.50215093  0.020533642            0   0.48161728     1.647111    2.1492619    7.9942719 
18390000    1.1225824 2.0212346e-05    0.4468837  0.095146026            0   0.35173767    1.6417768    2.0886605    4.1584047 
18395000     1.078427 4.7705883e-05   0.47611993  0.032853199            0   0.44326673    1.5771995    2.0533195    6.9384019 
18400000     1.041684 7.2156424e-05   0.55446837 0.0089768945            0   0.54549147    1.5234629    2.0779313    9.4667491 
18405000    1.1632903 1.211946e-05   0.37486887  0.010940431            0   0.36392844    1.7013121     2.076181    3.3172137 
18410000    1.0258138 -6.4510275e-05   0.54643333  0.015885628            0    0.5305477    1.5002527     2.046686   -4.5591661 
18415000    1.1503845 4.1558362e-06   0.34213106  0.021598576            0   0.32053248    1.6824374    2.0245685    2.4501261 
18420000    1.0054321 0.00011200451   0.53488018 0.0016468763            0   0.53323331    1.4704444    2.0053246    13.474587 
18425000    1.0595991 0.00010447837   0.44811673 0.00040996548            0   0.44770677    1.5496637    1.9977805    12.696366 
18430000     1.057017 6.1745928e-05   0.43526257  0.013955014            0   0.42130756    1.5458873    1.9811499     8.303933 
18435000    1.0927741 3.5613212e-05   0.34601633  0.039979245            0   0.30603709    1.5981821    1.9441985    5.5909914 
18440000    1.0329522 -1.2265059e-05   0.39460112   0.02328391            0   0.37131721    1.5106926    1.9052937    0.6493517 
18445000    1.0616467 -3.1889644e-05   0.33938477  0.008884474            0    0.3305003    1.5526583     1.892043   -1.3734565 
18450000   0.97743494 3.6699266e-05   0.41035635 0.0063109585            0    0.4040454    1.4294986    1.8398549    5.5978598 
18455000    1.0116567 7.1701356e-05   0.34130322 0.0011992842            0   0.34010393    1.4795479    1.8208511    9.1630699 
18460000    1.0146814 -2.2375395e-05   0.33212736 0.0017570185            0   0.33037034    1.4839715    1.8160988  -0.47514163 
18465000   0.91902552 -3.5126136e-05   0.41214994  0.022069274            0   0.39008067    1.3440748    1.7562248   -1.8406916 
18470000    1.0019428 2.8360641e-05   0.33414719  0.034745864            0   0.29940132    1.4653414    1.7994886    4.7036182 
18475000    1.0012461 -4.0236519e-06   0.31622457  0.030087568            0     0.286137    1.4643224    1.7805469     1.368525 
18480000   0.97218458 -8.7437639e-05   0.37580007  0.010053186            0   0.36574689    1.4218199      1.79762   -7.1559942 
18485000    1.0392929 -4.3318895e-05   0.30587156 8.0755585e-05            0    0.3057908    1.5199659    1.8258374   -2.6100174 
18490000    1.0474121 -1.827132e-05   0.28269921 0.00013395541            0   0.28256526    1.5318402    1.8145394 -0.056443747 
18495000    1.0529998 -4.7358489e-05    0.3497016 4.6283262e-05            0   0.34965531    1.5400123    1.8897139   -2.9597954 
18500000    1.0288908 5.0723004e-05   0.40148305  0.033164778            0   0.36831827    1.5047527    1.9062358    7.1002713 
18505000   0.99677217 6.9403378e-05   0.49388503  0.028978663            0   0.46490637    1.4577793    1.9516643    9.0585702 
18510000    1.1721724 4.0646931e-05    0.2703988  0.010086299            0    0.2603125    1.7143021    1.9847009    6.1469466 
18515000    1.0869318 3.1266985e-05   0.33113203 0.0053643293            0    0.3257677    1.5896378    1.9207698    5.1225091 
18520000    1.0567575 -8.3443994e-06   0.40314972  0.012739972            0   0.39040975    1.5455079    1.9486576    1.0941911 
18525000    1.0408284 -5.208975e-05    0.4448033  0.012603643            0   0.43219966    1.5222115    1.9670148   -3.3669756 
18530000    1.0944287 -2.5800352e-06   0.38546585  0.010434617            0   0.37503123    1.6006019    1.9860678    1.7218722 
18535000    1.1237892 2.2745937e-06    0.3280549  0.019007273            0   0.30904763    1.6435418    1.9715967    2.2045151 
18540000     1.080074 -9.0345234e-05   0.40887792  0.002062161            0   0.40681576    1.5796082    1.9884861   -7.2628659 
18545000    1.0844005 -2.7495237e-05   0.43071966 0.0088106325            0   0.42190902    1.5859357    2.0166554  -0.79885688 
18550000     1.080397 -1.9233967e-05    0.4106732  0.089263585            0   0.32140962    1.5800806    1.9907538  0.021195557 
18555000    1.1321584 -4.0750097e-06   0.34915657  0.075368084            0   0.27378849    1.6557816    2.0049382    1.5876572 
18560000    1.1328496 6.4938821e-05   0.34730153 0.0052891465            0   0.34201238    1.6567925    2.0040941    8.6538294 
18565000    1.0664457 6.5822206e-05   0.41207095 0.0025784809            0   0.40949247    1.5596768    1.9717478    8.7119417 
18570000   0.98413756 1.9970128e-05   0.53189314  0.066308953            0   0.46558419    1.4393012    1.9711943    4.0161354 
18575000    1.0414521 2.9792088e-05   0.42605484  0.048149356            0   0.37790548    1.5231236    1.9491785    4.9998883 
18580000    1.1439332 3.0660066e-05   0.27456991  0.016810713            0    0.2577592    1.6730023    1.9475722     5.087163 
18585000    1.0464275 -7.9772402e-08   0.46125966 0.0010679447            0   0.46019172    1.5304003    1.9916599    1.9834912 
18590000    1.0215996 -2.8348568e-05   0.48572196 0.00038185652            0   0.48534011    1.4940894    1.9798113  -0.92308201 
18595000    1.0774351 -4.5586365e-05   0.34580574 0.0010535783            0   0.34475216    1.5757488    1.9215546   -2.7464893 
18600000    1.1340234 4.2213228e-05   0.28669936 0.0011446092            0   0.28555475    1.6585093    1.9452087    6.2678432 
18605000   0.99217994 2.7496294e-05   0.47389202  0.006704571            0   0.46718745    1.4510632    1.9249552    4.7405757 
18610000    1.0035529 -5.1163617e-05     0.467567 0.0085932266            0   0.45897377     1.467696     1.935263   -3.3038914 
18615000    1.0037769 -1.3247802e-05   0.51047993 0.0029778383            0   0.50750209    1.4680237    1.9785036   0.62192863 
18620000    1.0585882 -6.4843736e-05   0.44076358 0.0048175605            0   0.43594602    1.5481853    1.9889488   -4.6510497 
18625000    1.0843023 -2.2518306e-05   0.40546738  0.004673182            0    0.4007942    1.5857921    1.9912595  -0.31461505 
18630000    1.0673194 -2.1978186e-05   0.42865056   0.06099432            0   0.36765624    1.5609546    1.9896052  -0.26096101 
18635000    1.1059462 -6.6051468e-05   0.38257198  0.013327942            0   0.36924403    1.6174464    2.0000184    -4.763652 
18640000    1.0668933 -4.3471308e-05   0.44707768   0.01162243            0   0.43545525    1.5603314    2.0074091   -2.4440528 
18645000    1.0680959 5.0115866e-05   0.41289794   0.08054181            0   0.33235613    1.5620902    1.9749881    7.1068528 
18650000    1.0181289 7.5701334e-05   0.44785149  0.010230751            0   0.43762074    1.4890135     1.936865    9.6886816 
18655000    1.0308615 6.2770509e-05   0.37704147            0            0   0.37704147    1.5076349    1.8846764    8.3123765 
18660000     1.072124 1.625456e-05   0.31946032 0.0035707047            0   0.31588962    1.5679813    1.8874416    3.5519086 
18665000    1.0353755 -7.3005643e-05   0.39182054   0.02616219            0   0.36565835    1.5142367    1.9060572   -5.5697207 
18670000   0.96030094 -7.0632197e-05   0.45857119  0.028050998            0    0.4305202    1.4044401    1.8630113   -5.3697257 
18675000   0.94629338 1.3662417e-05   0.45631214 0.0074173626            0   0.44889478    1.3839541    1.8402662    3.2392977 
18680000   0.95427835 -2.1185893e-05   0.46741776  0.044613672            0   0.42280408    1.3956321    1.8630498   -0.3063856 
18685000      1.00664 1.1201291e-05   0.35438697  0.034608235            0   0.31977874    1.4722111     1.826598    2.9736102 
18690000    0.9671164 2.2543589e-06   0.42152232  0.047327418            0   0.37419491    1.4144077    1.8359301    2.0667764 
18695000    0.9295068 -4.4821987e-06   0.45937838  0.065909001            0   0.39346938    1.3594037    1.8187821    1.3598049 
18700000   0.92904188 -1.9076997e-05   0.45847614  0.019293415            0   0.43918272    1.3587238    1.8171999  -0.13628465 
18705000   0.96299974 -3.596189e-05   0.38384497   0.02363963            0   0.36020534    1.4083871    1.7922321   -1.8902655 
18710000    1.0252946 3.4974969e-05   0.28426121  0.002222797            0   0.28203841    1.4994933    1.7837545    5.3651913 
18715000    1.0017052 1.6887045e-05   0.33426133            0            0   0.33426133    1.4649938    1.7992552    3.5284885 
18720000   0.93969818 -7.4646608e-05   0.43701589 0.00075859787            0   0.43625729    1.3743086    1.8113245   -5.8324882 
18725000   0.93225677 -1.5044797e-05   0.43404971  0.010534226            0   0.42351548    1.3634255    1.7974752   0.25688802 
18730000   0.92969458 -1.1683063e-05   0.46144682 0.0084851878            0   0.45296164    1.3596783    1.8211251   0.62477954 
18735000   0.98423136 -1.3374455e-05   0.36993243  0.054329959            0   0.31560247    1.4394384    1.8093708   0.43982664 
18740000   0.98305055 5.004232e-05   0.39883182  0.032387907            0   0.36644391    1.4377114    1.8365432    6.9608769 
18745000   0.94267895 -5.1776293e-06   0.48358813  0.048804457            0   0.43478368     1.378668    1.8622561    1.3320669 
18750000   0.88899364 -4.941716e-05   0.60371709   0.01303415            0   0.59068294    1.3001532    1.9038703   -3.1564469 
18755000    1.0089723 3.1125574e-05    0.4449522 0.0017307225            0   0.44322148    1.4756221    1.9205743     5.107833 
18760000    1.0434262 -3.6104598e-05   0.39151426 0.0034140136            0   0.38810025    1.5260108    1.9175251   -1.7795858 
18765000    1.0341976 1.574223e-05   0.44839502  0.012043419            0    0.4363516    1.5125139    1.9609089    3.5729133 
18770000    1.0230963 4.881846e-05   0.49378582 0.0074556761            0   0.48633015    1.4962783    1.9900642    6.9890745 
18775000    1.0605571 1.7373291e-05   0.40863356 0.00065653456            0   0.40797703    1.5510648    1.9596984    3.7387234 
18780000    1.0824572 -3.3453905e-06   0.34583739            0            0   0.34583739    1.5830937    1.9289311    1.5863631 
18785000    1.0975133 -8.2183534e-05   0.34987528            0            0   0.34987528    1.6051132    1.9549885   -6.4606054 
18790000    1.0102762 -5.0201944e-05   0.48440713  0.011964793            0   0.47244233     1.477529    1.9619361   -3.1787429 
18795000    1.0451271 6.3975956e-05   0.41771345  0.079262134            0   0.33845132    1.5284983    1.9462118    8.4973497 
18800000    1.0064973 2.0399267e-05   0.47170698  0.029623085            0    0.4420839    1.4720023    1.9437093    4.0325942 
18805000    1.0361354 -6.1740149e-05   0.43275908   0.04007083            0   0.39268825     1.515348     1.948107   -4.3740842 
18810000   0.97825534 -3.9809312e-05   0.49932111  0.060915303            0   0.43840581    1.4306984    1.9300195    -2.146454 
18815000    1.0480996 4.091813e-05   0.38879154  0.014469134            0   0.37432241    1.5328456    1.9216372    6.1116537 
18820000    1.1058427 2.2116487e-05   0.35309573 0.0026522584            0   0.35044348     1.617295    1.9703907    4.2351189 
18825000    1.0524419 -5.3261189e-05   0.44681186  0.019821744            0   0.42699012    1.5391963    1.9860082   -3.4679376 
18830000    1.0288237 -5.9531763e-05   0.46559693  0.045878336            0   0.41971859    1.5046547    1.9702516   -4.1258009 
18835000   0.97908859 -5.0723343e-05   0.58358374   0.14974145            0    0.4338423    1.4319171    2.0155008   -3.1785695 
18840000    1.0905273 -4.5133282e-06   0.40333327  0.072324769            0    0.3310085    1.5948961    1.9982294    1.5360646 
18845000   0.92971915 3.318312e-05   0.62207083  0.093844059            0   0.52822677    1.3597143    1.9817851    5.3797366 
18850000    1.1430534 -3.545668e-07   0.30340081  0.010270247            0   0.29313056    1.6717157    1.9751165    1.9388088 
18855000    1.0692814 -3.1471763e-05   0.43267881  0.042075544            0   0.39060327    1.5638241    1.9965029   -1.2262057 
18860000   0.98266501 -6.2925975e-05    0.5752127  0.058487245            0   0.51672546    1.4371476    2.0123603   -4.4312596 
18865000    1.0432551 -9.6335678e-05   0.46864634  0.041249306            0   0.42739704    1.5257606    1.9944069   -7.8703665 
18870000    1.0670954 -7.3776692e-05   0.42353332  0.036607256            0   0.38692607    1.5606271    1.9841604   -5.5705728 
18875000    1.0175185 -3.9251078e-05   0.47048932  0.012039257            0   0.45845006    1.4881209    1.9586102   -2.0607002 
18880000    1.0326235 -1.2659628e-05   0.44376616  0.010703419            0   0.43306274    1.5102119    1.9539781   0.65763222 
18885000    1.1048755 5.6299823e-05   0.32516912 0.00058019863            0   0.32458892    1.6158804    1.9410495    7.7061514 
18890000    1.0414746 3.3055822e-05   0.41940189 0.0079658253            0   0.41143607    1.5231567    1.9425586    5.3274747 
18895000    1.0603655 8.9613941e-06   0.36984685   0.03963381            0   0.33021304    1.5507846    1.9206314    2.8382782 
18900000    1.0578238 3.146021e-05   0.41875373  0.028042973            0   0.39071075    1.5470673    1.9658211    5.1873465 
18905000    1.0286483 -5.8422672e-05   0.48813967  0.088741445            0   0.39939822    1.5043981    1.9925378   -3.9899438 
18910000     1.079132 -2.8237843e-05   0.43561293  0.033111917            0   0.40250101    1.5782306    2.0138435  -0.87771161 
18915000    1.0514394 1.4570564e-05   0.48481444  0.052104453            0   0.43270999    1.5377302    2.0225446    3.5145703 
18920000     1.100194 -4.6308434e-05   0.43702478  0.024219647            0   0.41280513    1.6090337    2.0460585   -2.6959252 
18925000    1.0542965 -4.9303024e-05   0.49265515  0.028281425            0   0.46437373    1.5419087    2.0345638   -3.0140658 
18930000    1.1022335 -1.0343489e-05    0.4205985  0.023709813            0   0.39688868    1.6120165     2.032615   0.97344164 
18935000     1.039927 -3.3555783e-05   0.49633622  0.018114731            0   0.47822149    1.5208932    2.0172294   -1.4188828 
18940000    1.0932646 3.5209163e-05   0.44411735  0.044139809            0   0.39997754    1.5988994    2.0430168     5.648435 
18945000   0.96910529 0.00010647371   0.59341196  0.010320063            0   0.58309189    1.4173165    2.0107284    12.913636 
18950000    1.0875233 -9.9273211e-06   0.44546957 0.0037574243            0   0.44171214    1.5905029    2.0359724    1.0194147 
18955000    1.1068438 -7.8116521e-05   0.43062367  0.021784849            0   0.40883882    1.6187591    2.0493828    -5.949749 
18960000     1.028388 -8.7616434e-06   0.55512389  0.036047502            0   0.51907639    1.5040175    2.0591414    1.1619491 
18965000    1.0498071 -3.9913835e-05   0.53909948   0.06029946            0   0.47880003     1.535343    2.0744424   -2.0127343 
18970000    1.0968611 -7.3852271e-05   0.51545223  0.041776536            0    0.4736757    1.6041593    2.1196116    -5.442861 
18975000    1.1272313 2.9254683e-05   0.49403853 0.0052816439            0   0.48875689    1.6485758    2.1426143    5.1382938 
18980000    1.0459547 3.9820987e-05   0.60303726  0.030274112            0   0.57276315    1.5297088    2.1327461    6.2104152 
18985000    1.1557493 5.7496111e-06   0.43391698  0.034047177            0   0.39986981    1.6902834    2.1242004    2.7129606 
18990000    1.1225228 -5.3946449e-05   0.45114233  0.050385575            0   0.40075676    1.6416895    2.0928319   -3.4312845 
18995000    1.1510777 -6.1163309e-05   0.40574274  0.050117046            0   0.35562569    1.6834511    2.0891939   -4.1739289 
19000000    1.1050754 -5.8191903e-06   0.44059991 0.0085823236            0   0.43201758    1.6161727    2.0567726    1.4608875 
19005000    1.1070303 7.4293657e-05   0.41561113 0.0030750467            0   0.41253608    1.6190318     2.034643    9.6423134 
19010000    1.1552984 7.7601766e-05   0.34676711  0.035941193            0   0.31082592    1.6896239    2.0363911    9.9828119 
19015000    1.0748052 -8.8542164e-06   0.46039366  0.023241224            0   0.43715244    1.5719026    2.0322963    1.1256245 
19020000    1.0222047 -5.8277492e-05   0.53787317 0.00019447925            0   0.53767869    1.4949744    2.0328475   -3.9347676 
19025000    1.0432254 -2.6769026e-06   0.48240957  0.020763847            0   0.46164572    1.5257172    2.0081268    1.7340119 
19030000    1.0570585 6.7029746e-05   0.43281529   0.07204096            0   0.36077433    1.5459481    1.9787634    8.8426093 
19035000   0.94021643 4.6081628e-05   0.59495689  0.045671537            0   0.54928535    1.3750665    1.9700234    6.6887821 
19040000    1.0189939 4.6515702e-05   0.47606633  0.012119138            0    0.4639472    1.4902785    1.9663449    6.7295527 
19045000   0.93365822 3.7377093e-05   0.57338268 0.0010111645            0   0.57237152    1.3654751    1.9388578    5.7662722 
19050000    1.0373735 3.9411636e-05   0.43664814  0.013018782            0   0.42362935    1.5171587    1.9538068    5.9895583 
19055000    1.0358241 4.6324583e-05   0.42928032  0.032559333            0   0.39672099    1.5148927     1.944173    6.6878103 
19060000    1.0560178 5.8528517e-05   0.37985822  0.015705513            0   0.36415271     1.544426    1.9242843    7.9176044 
19065000   0.93086911 5.5583766e-05   0.54965542  0.018254604            0   0.53140082    1.3613961    1.9110515    7.6028291 
19070000   0.97016485 5.6402337e-05   0.45993674  0.011604242            0    0.4483325    1.4188661    1.8788028    7.6544021 
19075000    1.0193177 8.6853218e-05   0.40929913  0.013149647            0   0.39614949    1.4907521    1.9000512    10.793821 
19080000    1.0144941 -5.6842261e-05   0.41780581  0.016483477            0   0.40132233    1.4836976    1.9015035   -3.9191441 
19085000   0.95342933 -0.00010180707   0.49645191  0.026103169            0   0.47034874    1.3943904    1.8908423   -8.5342012 
19090000    1.0252538 1.3523316e-05    0.4137234  0.074216606            0    0.3395068    1.4994336     1.913157    3.2979446 
19095000    1.0239941 5.7195997e-05   0.38999101   0.09292797            0   0.29706304    1.4975914    1.8875824    7.7444525 
19100000    0.9657125 -6.6402555e-05   0.47254089  0.035177365            0   0.43736352    1.4123545    1.8848954   -4.9147262 
19105000    1.0078621 -5.2881615e-05   0.40349251  0.030802106            0    0.3726904    1.4739983    1.8774908   -3.5375865 
19110000    1.0414566 4.3244136e-05   0.34281742  0.025659804            0   0.31715761    1.5231303    1.8659477    6.2941473 
19115000      1.01674 1.6207561e-05   0.39815858  0.039292238            0   0.35886634    1.4869822    1.8851408     3.544795 
19120000    0.9167569 -2.4554724e-05    0.5324933  0.054572049            0   0.47792126     1.340757    1.8732503  -0.64115349 
19125000    1.0320141 -6.3827367e-05   0.35946783  0.003537138            0    0.3559307    1.5093206    1.8687884   -4.6671339 
19130000   0.91830534 -8.7639943e-05   0.50433797 0.0079769854            0   0.49636099    1.3430216    1.8473595   -7.1269707 
19135000    1.0226943 -5.8325861e-05    0.3789391  0.017875068            0   0.36106403    1.4956905    1.8746296   -4.0979386 
19140000   0.93969373 3.7096176e-05   0.48772513  0.035956737            0    0.4517684    1.3743021    1.8620272    5.6606757 
19145000   0.95911068 8.0462391e-05   0.44286207  0.057525354            0   0.38533671    1.4026994    1.8455614     10.08491 
19150000   0.99533231 4.4894913e-05   0.39034166  0.029498437            0   0.36084322    1.4556735    1.8460152    6.4432542 
19155000   0.91504107 -2.8711255e-06   0.46364452 0.0010374333            0   0.46260709    1.3382476    1.8018921    1.5078888 
19160000   0.95996318 -5.9964858e-05   0.39187295 0.00086569021            0   0.39100726    1.4039461    1.7958191   -4.3445824 
19165000   0.93207044 -8.4492572e-05   0.41931803  0.023470866            0   0.39584717     1.363153     1.782471   -6.8695684 
19170000    0.9337126 -7.2017918e-05   0.43039961  0.063690866            0   0.36670874    1.3655547    1.7959543   -5.5786806 
19175000   0.98944155 -2.6854007e-06   0.34876441  0.016111765            0   0.33265264    1.4470583    1.7958227    1.5208376 
19180000   0.96228408 1.9367718e-05   0.40172695 0.00024988349            0   0.40147706    1.4073405    1.8090674    3.7923218 
19185000    1.0041264 -5.8190698e-05   0.36322338 0.0072383599            0   0.35598502    1.4685349    1.8317583   -4.1269692 
19190000   0.98728339 1.5668858e-05   0.38549604  0.029333714            0   0.35616233     1.443902     1.829398     3.433889 
19195000   0.95994948 5.704293e-05   0.40963906  0.014412518            0   0.39522654    1.4039261    1.8135652    7.6547612 
19200000   0.99877455 6.3286547e-05    0.4008082 0.00012610463            0   0.40068209    1.4607078     1.861516    8.3420584 
19205000   0.99070037 6.1106701e-05   0.40136603 0.00079321814            0   0.40057281    1.4488993    1.8502653    8.1075915 
19210000   0.98206781 4.0131187e-05   0.37037023 0.0010292355            0     0.369341    1.4362742    1.8066444     5.916078 
19215000   0.99819834 5.5312094e-05   0.36636678  0.010549637            0   0.35581715    1.4598651    1.8262319    7.4901903 
19220000   0.98187526 5.2786531e-05   0.43893215  0.051495502            0   0.38743665    1.4359926    1.8749247    7.2802655 
19225000   0.92510241 9.1789212e-06   0.53014959  0.057227126            0   0.47292246    1.3529623    1.8831119    2.8230334 
19230000   0.91296428 -1.2852637e-05   0.55191725   0.12153947            0   0.43037778    1.3352103    1.8871275   0.57101744 
19235000   0.99603583 2.8982596e-05   0.45224338  0.021234123            0   0.43100925    1.4567024    1.9089458    4.8767636 
19240000   0.99654862 5.5271118e-05   0.44431231  0.025644692            0   0.41866762    1.4574524    1.9017647    7.5615272 
19245000    1.0205494 5.0800937e-05   0.41297118  0.045158878            0    0.3678123    1.4925535    1.9055247    7.1075407 
19250000    1.0622518 1.0414269e-05   0.35831608 0.0042851138            0   0.35403097    1.5535432    1.9118593    2.9782805 
19255000    1.0120734 -8.9529334e-05   0.39727515 3.1309322e-05            0   0.39724384    1.4801573    1.8774325   -7.2903714 
19260000    1.0317095 -7.0337466e-05   0.37680483 0.00076702908            0    0.3760378    1.5088751    1.8856799   -5.3168766 
19265000   0.97022376 6.697497e-05    0.4976609  0.048725312            0   0.44893559    1.4189522    1.9166131    8.7748501 
19270000    1.0910676 3.5861089e-05   0.38062917  0.029914851            0   0.35071432    1.5956863    1.9763155     5.648491 
19275000    1.0243941 -5.9210672e-05   0.44743857 0.0039651105            0   0.44347346    1.4981764     1.945615   -4.1175579 
19280000   0.98388634 3.3082673e-05   0.45392026 0.0017179277            0   0.45220233    1.4389338     1.892854    5.2805197 
19285000   0.97414184 0.00013196551   0.43200899 0.00083084407            0   0.43117815    1.4246824    1.8566914     15.36996 
19290000   0.97404486 2.3257083e-05   0.43511157 3.5162255e-05            0    0.4350764    1.4245406    1.8596522    4.2411775 
19295000   0.98606242 -4.4115271e-05   0.43856152            0            0   0.43856152    1.4421163    1.8806778    -2.636726 
19300000    1.0731479 -4.1300803e-05   0.38173277 0.0028177128            0   0.37891505    1.5694787    1.9512115   -2.2779907 
19305000   0.99854599 -6.4809737e-05   0.47284908 0.0098285769            0    0.4630205    1.4603735    1.9332226   -4.7032945 
19310000   0.97710598 2.9933794e-05   0.46717513 0.0090637721            0   0.45811136    1.4290175    1.8961926    4.9614132 
19315000    1.0720149 0.00011160267   0.36178898 0.0056867784            0    0.3561022    1.5678218    1.9296108    13.357724 
19320000    1.0367144 6.1251437e-05   0.46454784  0.001414346            0   0.46313349    1.5161949    1.9807427    8.2528898 
19325000    1.0780344 3.415558e-05   0.41800057            0            0   0.41800057    1.5766253    1.9946259    5.4921573 
19330000    1.1411744 1.1703155e-07   0.31755513 9.8384084e-05            0   0.31745674    1.6689676    1.9865227    1.9985068 
19335000   0.96247013 -5.3610573e-05   0.62704105 0.00063848085            0   0.62640257    1.4076126    2.0346536   -3.4550691 
19340000    1.1402899 -8.7029596e-07   0.39059327 0.0028742836            0   0.38771899     1.667674    2.0582673     1.969149 
19345000    1.1867183 1.3674857e-06   0.34092482 0.0043779759            0   0.33654684    1.7355756    2.0765004    2.2165309 
19350000    1.1345876 2.5305106e-05     0.405928  0.010773015            0   0.39515499    1.6593343    2.0652623    4.6565051 
19355000     1.038161 8.3878043e-05   0.51970731   0.01921696            0   0.50049035    1.5183105    2.0380178    10.627129 
19360000    1.0922418 -4.0776506e-05   0.44448167  0.020937587            0   0.42354408    1.5974036    2.0418853   -2.1336289 
19365000    1.1247919 -6.0375231e-05   0.41845354   0.02924792            0   0.38920562    1.6450081    2.0634617    -4.118962 
19370000    1.0359873 -9.5545467e-05   0.52014777  0.035114087            0   0.48503369    1.5151314    2.0352791   -7.7485767 
19375000    0.9681533 -6.2357968e-05   0.56180501  0.024141887            0   0.53766313    1.4159242    1.9777292   -4.4077267 
19380000    1.0420361 0.00010450356   0.43101556  0.059939259            0    0.3710763    1.5239778    1.9549934    12.656158 
19385000    1.0284443 1.9051995e-05    0.4087436   0.02637655            0   0.38236705    1.5040998    1.9128435    3.8637678 
19390000    1.0240348 -0.0001153215   0.41864291 8.2785469e-05            0   0.41856013    1.4976509    1.9162938   -9.8926277 
19395000    1.0020199 3.8668325e-06   0.45614279            0            0   0.45614279    1.4654541    1.9215969    2.3175606 
19400000    1.0839299 5.4008618e-06   0.33113505            0            0   0.33113505    1.5852474    1.9163825    2.4694307 
19405000   0.92087636 -8.291254e-05   0.55117175 5.9904292e-05            0   0.55111184    1.3467817    1.8979534   -6.5922907 
19410000   0.96361783 3.8672782e-05   0.52212778 0.00037622927            0   0.52175155    1.4092911    1.9314189    5.8915117 
19415000    1.0852755 -1.7539019e-05   0.36099236 0.00036006006            0    0.3606323    1.5872154    1.9482078   0.15221226 
19420000    1.0729369 -6.340387e-05   0.37971592 0.0045770977            0   0.37513882    1.5691703    1.9488862     -4.54367 
19425000    1.1160563 6.7821699e-05   0.34056581 0.0020366612            0   0.33852915    1.6322323    1.9727981      8.91774 
19430000    1.0464367 2.9493731e-05   0.44222299 0.0042566507            0   0.43796634    1.5304136    1.9726366    4.9927947 
19435000   0.96798383 2.0011072e-05   0.56989319  0.015505417            0   0.55438777    1.4156764    1.9855695    4.0347033 
19440000    1.0935164 -1.5419236e-06   0.38022135 0.0070229727            0   0.37319837    1.5992677    1.9794891    1.8215961 
19445000     1.074994 4.3866182e-05   0.44795198 0.00026354107            0   0.44768844    1.5721787    2.0201307    6.5120277 
19450000   0.99930678 9.3642739e-05   0.55459064            0            0   0.55459064    1.4614862    2.0160768    11.605093 
19455000    1.1028373 1.634955e-05   0.40751977            0            0   0.40751977    1.6128995    2.0204193    3.6946133 
19460000    1.1741346 -1.3120081e-05   0.32951858 0.00012513631            0   0.32939344    1.7171718    2.0466904   0.70319412 
19465000    1.0864476 -1.8379335e-05   0.48050822  0.004188647            0   0.47631958    1.5889296    2.0694378   0.18739389 
19470000    1.1558284 -3.0617992e-05   0.38158706  0.012524914            0   0.36906215     1.690399    2.0719861   -1.0632963 
19475000    1.1047361 1.7866009e-05   0.50289801 0.0051544155            0    0.4977436    1.6156765    2.1185745    3.9480538 
19480000      1.15475 -1.6104835e-05    0.4299503 0.0067715763            0   0.42317873    1.6888219    2.1187722   0.46963712 
19485000    1.1518511 -8.9676671e-05    0.4666009  0.017382205            0    0.4492187    1.6845822    2.1511831    -7.031708 
19490000    1.1293212 -4.3608541e-05   0.50471815 0.0046656598            0   0.50005249    1.6516322    2.1563504   -2.3091643 
19495000    1.1495448 3.7171012e-05   0.40560335 0.00018153278            0   0.40542181    1.6812093    2.0868127    5.8931243 
19500000    1.0601516 1.0696275e-05    0.5374014  0.010953667            0   0.52644773    1.5504718    2.0878732    3.1831717 
19505000    1.2298847 -5.5489624e-05   0.34024504  0.036111121            0   0.30413392    1.7987063    2.1389514   -3.5431861 
19510000    1.0752973 -6.503303e-05   0.52997691   0.02414335            0   0.50583356    1.5726223    2.1025992   -4.5567831 
19515000    1.1909052 2.8876897e-05   0.38877474 0.0083938225            0   0.38038092    1.7416989    2.1304736    5.0874678 
19520000    1.1421831  0.000121691   0.51412549  0.013242488            0     0.500883    1.6704428    2.1845683    14.645727 
19525000    1.1480907 5.7676342e-05   0.48903549  0.056559536            0   0.43247595    1.6790827    2.1681182    8.0741756 
19530000    1.1088609 -7.8408536e-05   0.53590048    0.0871245            0   0.44877598     1.621709    2.1576095   -5.8714245 
19535000    1.1903566 -3.6654963e-06   0.43767493 0.0096828063            0   0.42799213    1.7408966    2.1785715    1.8032247 
19540000    1.1458529 0.00014785981   0.50252505 0.0071026623            0   0.49542239    1.6758099    2.1783349     17.31918 
19545000    1.2220758 6.6162987e-05    0.4021096  0.020861071            0   0.38124853    1.7872859    2.1893955    8.9644853 
19550000    1.2185986 -2.3742615e-05   0.44490384  0.014076876            0   0.43082696    1.7822005    2.2271044  -0.20413944 
19555000    1.2287595 -2.1138884e-05   0.45622193  0.019616441            0   0.43660549    1.7970608    2.2532827  0.088661003 
19560000     1.231398 2.7873155e-05   0.43080979 0.0066260142            0   0.42418377    1.8009195    2.2317293    5.0859403 
19565000    1.2185325 -6.3356125e-05   0.43868348 0.0055523976            0   0.43313108    1.7821037    2.2207872     -4.26688 
19570000    1.2425017 -2.8024902e-05    0.3863177  0.046238375            0   0.34007933    1.8171587    2.2034764  -0.66627348 
19575000    1.2043115 6.7953557e-05   0.46985975  0.083129041            0   0.38673071    1.7613056    2.2311654    9.1896096 
19580000     1.164156 -1.3827831e-05   0.51047262   0.12244888            0   0.38802374    1.7025781    2.2130507   0.79708082 
19585000    1.1828711 9.1778033e-06   0.52825864  0.039271892            0   0.48898675    1.7299489    2.2582076    3.1980146 
19590000    1.0304994 -4.063939e-05   0.73262605   0.10221151            0   0.63041454    1.5071054    2.2397314   -1.9217421 
19595000     1.169074 5.4787087e-05    0.5353026  0.011276903            0    0.5240257    1.7097707    2.2450733     7.855271 
19600000    1.2225408 0.00012928635   0.44551367 0.00046778123            0   0.44504589    1.7879659    2.2334796    15.472402 
19605000    1.2062826 3.4761807e-05   0.41406097  0.015360746            0   0.39870023    1.7641883    2.1782493    5.7378584 
19610000     1.144987 -5.2828783e-05   0.52311402  0.033072038            0   0.49004198    1.6745435    2.1976575   -3.2120099 
19615000     1.063499 -3.526887e-05   0.63619905 0.0023971537            0    0.6338019    1.5553673    2.1915664   -1.4199659 
19620000    1.1444081 -2.8643223e-06   0.55985162 0.0011528877            0   0.55869874    1.6736968    2.2335485    1.9402418 
19625000    1.2369747 -4.8215752e-05   0.38812665  0.001672203            0   0.38645445    1.8090754    2.1972021   -2.7400909 
19630000    1.1805874 -3.9090475e-05   0.51185836 2.4159939e-05            0    0.5118342     1.726609    2.2384674   -1.7643973 
19635000    1.2218335 1.365931e-05    0.4381345 0.0037728522            0   0.43436165    1.7869315     2.225066    3.6237794 
19640000    1.2510342 2.1484617e-05   0.43169148  0.011929116            0   0.41976236    1.8296375    2.2613289    4.4613537 
19645000    1.2679839 2.6368273e-05   0.36629173   0.02961879            0   0.33667294    1.8544264    2.2207182    4.9208293 
19650000    1.0556452 7.1780083e-05   0.68815753   0.13875193            0    0.5494056    1.5438812    2.2320387    9.5823192 
19655000    1.1769811 2.4109825e-05   0.50021114  0.054701295            0   0.44550984    1.7213349     2.221546    4.6903921 
19660000    1.1534118 -4.109479e-05   0.47301859  0.022306554            0   0.45071204    1.6868648    2.1598834   -2.0482231 
19665000    1.2023785 -3.6106977e-05   0.44558106  0.094652926            0   0.35092813    1.7584785    2.2040596   -1.4932949 
19670000    1.1267072 3.459337e-05   0.50859138   0.07024963            0   0.43834175    1.6478093    2.1564007    5.6987617 
19675000    1.1222175 -2.5885715e-05   0.54739449  0.026837152            0   0.52055734     1.641243    2.1886375   -0.4620597 
19680000    1.1744353 6.7116574e-06   0.45072645  0.010184832            0   0.44054161    1.7176116    2.1683381    2.8556118 
19685000    1.0739485 -3.0702308e-05   0.59287058 0.0048294949            0   0.58804109    1.5706497    2.1635202  -0.98039608 
19690000    1.1758498 -7.2601597e-06   0.44237961 0.0020689514            0   0.44031066    1.7196803    2.1620599    1.4186196 
19695000    1.1730717 -6.3388152e-05   0.45074093 0.00024466588            0   0.45049627    1.7156174    2.1663583   -4.3245884 
19700000    1.1686849 -4.137705e-06   0.45957731 5.3338331e-05            0   0.45952397    1.7092016    2.1687789    1.7450779 
19705000    1.0975746 -3.9566329e-06   0.58583401            0            0   0.58583401    1.6052028    2.1910368    1.7858776 
19710000    1.1966235 3.901164e-05   0.36208827 0.0064906721            0    0.3555976    1.7500618    2.1121501     6.106942 
19715000    1.1146157 2.6641042e-05   0.53530702  0.063147874            0   0.47215915    1.6301254    2.1654324    4.8934751 
19720000    1.0751429 -7.3587488e-05   0.57867999  0.037290009            0   0.54138999    1.5723965    2.1510765   -5.3842823 
19725000     1.176895 -4.0022297e-05   0.45184995  0.033583358            0   0.41826659     1.721209    2.1730589   -1.9252242 
19730000    1.1162012 1.3249073e-05   0.50324868  0.081090701            0   0.42215798    1.6324442    2.1356929     3.492398 
19735000    1.1254725 -1.4491852e-05   0.49370727  0.034520583            0   0.45918668    1.6460036    2.1397108   0.65574517 
19740000   0.99276159 -1.9201045e-05   0.69197021   0.11069948            0   0.58127074    1.4519138     2.143884   0.17769705 
19745000    1.1545461 -7.0755393e-05   0.46161853  0.014339804            0   0.44727873    1.6885237    2.1501422     -5.09521 
19750000     1.182712 -2.039069e-05    0.4203926 0.0029251984            0    0.4174674    1.7297163    2.1501089  0.062102236 
19755000    1.0855258 7.0320776e-05    0.5678836  0.014514937            0   0.55336867    1.5875814     2.155465    9.3563125 
19760000    1.1718417 4.6446989e-05    0.4483878   0.01042558            0   0.43796223    1.7138185    2.1622063     6.918378 
19765000    1.1582903 -6.1686918e-05   0.48794899 0.0090778779            0   0.47887111    1.6939995    2.1819485   -4.1347919 
19770000     1.027564 -5.3750855e-05   0.67357775  0.037815327            0   0.63576242    1.5028123    2.1763901   -3.3276975 
19775000    1.0753526 3.9026742e-05   0.59719997  0.084237529            0   0.51296244    1.5727032    2.1699032    6.1662416 
19780000    1.1140081 8.3494184e-05   0.55556144  0.036696768            0   0.51886467    1.6292369    2.1847983    10.734603 
19785000    1.0682263 8.9413372e-05   0.61300931  0.012050697            0   0.60095861     1.562281    2.1752903     11.33122 
19790000    1.1309387 6.0240319e-05   0.47617596 0.0036653023            0   0.47251066    1.6539978    2.1301738    8.2987824 
19795000    1.0812744 8.2852662e-05   0.56366296 0.0032206169            0   0.56044234    1.5813638    2.1450267    10.629139 
19800000    1.1019908 8.7018831e-05   0.51785298 0.0081958576            0   0.50965712    1.6116616    2.1295146    11.040243 
19805000    1.0321981 1.9604153e-05   0.60756973  0.019121191            0   0.58844854    1.5095897    2.1171594    4.1246247 
19810000    1.1369949 4.7544355e-05   0.48193204  0.028638981            0   0.45329306     1.662855    2.1447871     7.013329 
19815000    1.0633464 -7.9159831e-06    0.5936274  0.083284539            0   0.51034286    1.5551442    2.1487716    1.3381749 
19820000    1.0385591 -9.0558542e-05   0.70891444  0.046144571            0   0.66276987    1.5188926    2.2278071   -7.0453877 
19825000    1.1516689 -7.2352898e-05   0.45155467   0.02610944            0   0.42544523    1.6843158    2.1358705   -5.2730663 
19830000    1.0933654 -3.1663497e-05   0.48123119 0.0003774595            0   0.48085373    1.5990469    2.0802781    -1.162064 
19835000    1.1493568 1.8144343e-05     0.389358 0.0012857661            0   0.38807223    1.6809343    2.0702923     3.928273 
19840000   0.99110933 4.9388169e-05   0.60636932 0.0025877179            0    0.6037816    1.4494974    2.0558667    7.1132152 
19845000    1.0995605 6.6888681e-05    0.4819223 0.0058849619            0   0.47603734    1.6081072    2.0900295    8.9394304 
19850000    1.0727227 6.0232071e-06   0.51158908 0.0082273913            0   0.50336169    1.5688569     2.080446    2.6972224 
19855000    1.0422322 -6.7765042e-05   0.55442691 0.0033926886            0   0.55103422    1.5242646    2.0786915   -4.8604489 
19860000     1.124022 -9.1609171e-05   0.43020873 1.390526e-05            0   0.43019482    1.6438821    2.0740909   -7.3066882 
19865000    1.0721731 -8.310904e-05   0.51439028            0            0   0.51439028    1.5680531    2.0824434   -6.4279223 
19870000    1.0286353 -5.7907226e-05   0.56547662  0.020346731            0   0.54512989    1.5043792    2.0698558   -3.8598441 
19875000    1.0149587 -6.4619778e-05   0.63647843  0.070615838            0   0.56586259    1.4843771    2.1208556   -4.4962097 
19880000    1.1496558 -7.7868391e-06   0.38589679 0.00085650418            0   0.38504029    1.6813716    2.0672684    1.2698961 
19885000     1.034142 0.00014077585   0.54480432            0            0   0.54480432    1.5124327     2.057237    16.472684 
19890000   0.99266293 0.00011959057   0.58198632            0            0   0.58198632    1.4517695    2.0337559     14.27983 
19895000    1.0687944 2.2975061e-05   0.55648134            0            0   0.55648134    1.5631119    2.1195932    4.4722394 
19900000    1.1891457 -4.8126912e-05   0.42574617            0            0   0.42574617    1.7391255    2.1648717   -2.7633241 
19905000    1.1137505 -3.9290013e-05   0.56164302   0.00354952            0    0.5580935    1.6288601    2.1905031   -1.8327942 
19910000    1.1590908 5.147118e-05   0.50984457  0.013013518            0   0.49683105    1.6951703    2.2050149    7.4756637 
19915000    1.0318393 9.8632602e-05   0.66989769  0.021104629            0   0.64879306     1.509065    2.1789627    12.278941 
19920000    1.1138085 -3.0024168e-05   0.59018332   0.01450823            0   0.57567509    1.6289449    2.2191283  -0.85534654 
19925000     1.083913 -0.00010648257   0.63531802 0.0040395477            0   0.63127848    1.5852228    2.2205409    -8.683274 
19930000     1.217511 -2.0736759e-05   0.43584816  0.047920546            0   0.38792762    1.7806099     2.216458  0.093013864 
19935000     1.076759 6.3997377e-05   0.64926345  0.027446311            0   0.62181714      1.57476    2.2240234    8.7773548 
19940000   0.94749741 7.6116994e-05   0.77783805  0.015035361            0   0.76280268     1.385715     2.163553    9.9579332 
19945000    1.1536782 0.00010033641   0.47446361 0.0042754449            0   0.47018817    1.6872544     2.161718    12.436166 
19950000    1.1268204 9.5378303e-05   0.48519577 6.2729167e-06            0   0.48518949    1.6479749    2.1331707    11.899909 
19955000    1.0895999 -2.1031521e-05    0.5388172 0.00069706203            0   0.53812013    1.5935398     2.132357 -0.021270725 
19960000    1.1297337 -2.5337538e-05   0.43528884 0.00066786189            0   0.43462098    1.6522356    2.0875244  -0.50703945 
19965000    1.0155975 3.9413097e-05    0.5495982 0.0022447387            0   0.54735346    1.4853114    2.0349096    6.0708107 
19970000   0.96651164 1.3851227e-05    0.6533635  0.010537972            0   0.64282553    1.4135233    2.0668868    3.4852525 
19975000    1.0417403 2.7172661e-05    0.5008699  0.013864696            0   0.48700521    1.5235452    2.0244151    4.8068956 
19980000    1.0488671 8.1415262e-06   0.52498573 0.0067044758            0   0.51828126    1.5339681    2.0589538    2.8926461 
19985000    1.0679724 9.4358979e-07   0.51231834  0.001472854            0   0.51084549    1.5619096     2.074228    2.1708515 
19990000      1.06625 4.7619597e-07   0.49715502 0.00031054035            0   0.49684448    1.5593906    2.0565456    2.1053081 
19995000    0.9890247 -2.4784369e-05   0.61408837 0.0013793138            0   0.61270906    1.4464486     2.060537   -0.4773824 
20000000   0.98490274 -4.4320404e-06   0.61058483 0.0053981229            0    0.6051867    1.4404203    2.0510051    1.5971642 
Loop time of 129.798 on 1 procs for 20000000 steps with 40 atoms

Performance: 133130.080 tau/day, 154085.740 timesteps/s
99.3% CPU use with 1 MPI tasks x no OpenMP threads

MPI task timing breakdown:
Section |  min time  |  avg time  |  max time  |%varavg| %total
---------------------------------------------------------------
Pair    | 5.1373     | 5.1373     | 5.1373     |   0.0 |  3.96
Bond    | 12.854     | 12.854     | 12.854     |   0.0 |  9.90
Neigh   | 18.574     | 18.574     | 18.574     |   0.0 | 14.31
Comm    | 46.783     | 46.783     | 46.783     |   0.0 | 36.04
Output  | 0.33399    | 0.33399    | 0.33399    |   0.0 |  0.26
Modify  | 40.998     | 40.998     | 40.998     |   0.0 | 31.59
Other   |            | 5.118      |            |       |  3.94

Nlocal:        40.0000 ave          40 max          40 min
Histogram: 1 0 0 0 0 0 0 0 0 0
Nghost:        0.00000 ave           0 max           0 min
Histogram: 1 0 0 0 0 0 0 0 0 0
Neighs:        14.0000 ave          14 max          14 min
Histogram: 1 0 0 0 0 0 0 0 0 0

Total # of neighbors = 14
Ave neighs/atom = 0.35
Ave special neighs/atom = 5.7000000
Neighbor list builds = 3602
Dangerous builds = 0
write_restart restart.equil
System init for write_restart ...
WARNING: Communication cutoff 1.4200000000000002 is shorter than a bond length based estimate of 1.8. This may lead to errors. (../comm.cpp:667)
#--------------End of Input file ------------------
Total wall time: 0:02:09
