LAMMPS (29 Oct 2020)
###################### polyelectrolyte complexation ######################
clear

#Initialization
#------------------------------------
units				lj
dimension			3
atom_style			full
boundary			p p p

#Atom Definition
#-------------------------------------
read_data			data.complexation
Reading data file ...
  orthogonal box = (-80.000000 -80.000000 -80.000000) to (80.000000 80.000000 80.000000)
  1 by 1 by 1 MPI processor grid
  reading atoms ...
  120 atoms
  scanning bonds ...
  1 = max bonds/atom
  reading bonds ...
  119 bonds
Finding 1-2 1-3 1-4 neighbors ...
  special bond factors lj:    0.0      0.0      0.0     
  special bond factors coul:  0.0      0.0      0.0     
     2 = max # of 1-2 neighbors
     2 = max # of 1-3 neighbors
     4 = max # of 1-4 neighbors
     6 = max # of special neighbors
  special bonds CPU = 0.000 seconds
  read_data CPU = 0.003 seconds

#Force definition
#----------------------------------------------
#Bond definition
bond_style			harmonic
bond_coeff			1 5000 1
#Pair definition
special_bonds	lj 0 1 1
Finding 1-2 1-3 1-4 neighbors ...
  special bond factors lj:    0.0      1.0      1.0     
  special bond factors coul:  0.0      0.0      0.0     
     2 = max # of 1-2 neighbors
     2 = max # of 1-3 neighbors
     4 = max # of 1-4 neighbors
     6 = max # of special neighbors
  special bonds CPU = 0.000 seconds
pair_style		 lj/cut 1.12
pair_modify 		 shift yes
pair_coeff	1 1 1 1 1.12

#Timestep etc
#--------------------------------------------
timestep		1e-05
run_style		verlet
velocity		all	create	1	13

#Fix
#---------------------------------------
group polymers type 1
120 atoms in group polymers
fix 1 all nve
fix 2 all langevin 1	1	10	13
fix 3 polymers recenter INIT INIT INIT units box

#Dump
#------------------------------------------------
compute  1 all gyration
variable  myRg2 equal c_1
variable  i equal step
fix  mythermofile all print 5000 "$i ${myRg2}" file radius_of_gyration.dat screen no

thermo_style		 custom step temp press pe evdwl ecoul ebond ke etotal enthalpy
thermo 	5000
dump	3 all custom 5000 dump.lammpstrj id mol type xu yu zu
run		20000000
Neighbor list info ...
  update every 1 steps, delay 10 steps, check yes
  max neighbors/atom: 2000, page size: 100000
  master list distance cutoff = 1.42
  ghost atom cutoff = 1.42
  binsize = 0.71, bins = 226 226 226
  1 neighbor lists, perpetual/occasional/extra = 1 0 0
  (1) pair lj/cut, perpetual
      attributes: half, newton on
      pair build: half/bin/newton
      stencil: half/bin/3d/newton
      bin: standard
WARNING: Communication cutoff 1.4200000000000002 is shorter than a bond length based estimate of 1.8. This may lead to errors. (../comm.cpp:667)
Per MPI rank memory allocation (min/avg/max) = 54.72 | 54.72 | 54.72 Mbytes
Step Temp Press PotEng E_vdwl E_coul E_bond KinEng TotEng Enthalpy 
       0            1 2.9052734e-05            0            0            0            0       1.4875       1.4875    2.4791667 
    5000   0.77307386 -0.00046446307   0.33804094            0            0   0.33804094    1.1499474    1.4879883   -14.365685 
   10000   0.43160454 -0.0010802067   0.85470909            0            0   0.85470909   0.64201176    1.4967208   -35.374334 
   15000   0.70614017 -0.00057904643   0.46322014            0            0   0.46322014    1.0503835    1.5136037   -18.251181 
   20000   0.72538102 -0.00039209492   0.44258084            0            0   0.44258084    1.0790043    1.5215851   -11.861922 
   25000   0.54125055 -0.00086208387    0.7211151            0            0    0.7211151   0.80511019    1.5262253   -27.899571 
   30000   0.63905768 -0.00068203123   0.56709408            0            0   0.56709408    0.9505983    1.5176924   -21.762307 
   35000     0.783362 -0.00027244793   0.32151339            0            0   0.32151339     1.165251    1.4867644   -7.8127916 
   40000   0.63857717 -0.00053310327   0.53106251            0            0   0.53106251   0.94988354    1.4809461   -16.715646 
   45000   0.65368528 -0.00060600451   0.50441734            0            0   0.50441734   0.97235685    1.4767742    -19.20818 
   50000   0.67446198 -0.00043019809   0.47867187            0            0   0.47867187    1.0032622    1.4819341   -13.202161 
   55000   0.64750709 -0.0005015315    0.5469202            0            0    0.5469202   0.96316679     1.510087   -15.608855 
   60000   0.69343331 -0.000315745   0.50634648            0            0   0.50634648     1.031482    1.5378285   -9.2396009 
   65000    0.8062266 -0.00038333517   0.34333694            0            0   0.34333694    1.1992621     1.542599   -11.541908 
   70000   0.78435163 -0.00040665878    0.3919702            0            0    0.3919702    1.1667231    1.5586933   -12.321927 
   75000   0.79046618 -0.00022828146   0.41690123            0            0   0.41690123    1.1758184    1.5927197   -6.1992874 
   80000   0.85176468 -0.00010910425   0.32029087            0            0   0.32029087        1.267    1.5872908   -2.1368009 
   85000   0.81333953 -0.00032749801   0.35434188 0.00037924008            0   0.35396264    1.2098426    1.5641844   -9.6144144 
   90000   0.83160288 -0.00015435037   0.32830239            0            0   0.32830239    1.2370093    1.5653117    -3.703181 
   95000   0.81726527 -0.00014134725   0.35393417            0            0   0.35393417    1.2156821    1.5696163   -3.2550366 
  100000   0.80672584 -0.00022630509   0.36856142            0            0   0.36856142    1.2000047    1.5685661    -6.155981 
  105000   0.83635166 5.552676e-05    0.3185065            0            0    0.3185065    1.2440731    1.5625796     3.457893 
  110000   0.86757411 2.6681625e-06   0.28111837            0            0   0.28111837    1.2905165    1.5716349    1.6627081 
  115000   0.85169238 -0.00022824189   0.31118099            0            0   0.31118099    1.2668924    1.5780734   -6.2125833 
  120000   0.85004076 -7.2972604e-05     0.338949            0            0     0.338949    1.2644356    1.6033846  -0.88741357 
  125000   0.87530582 -1.2455195e-05   0.30086659            0            0   0.30086659    1.3020174     1.602884    1.1777467 
  130000   0.81639007 -0.00011607798   0.38646209            0            0   0.38646209    1.2143802    1.6008423   -2.3612861 
  135000    0.8472654 -0.00012979522   0.34356415            0            0   0.34356415    1.2603073    1.6038714   -2.8264721 
  140000   0.84073134 -4.7376833e-05   0.38607737            0            0   0.38607737    1.2505879    1.6366652  0.019536005 
  145000   0.88889189 3.815596e-05   0.32934143            0            0   0.32934143    1.3222267    1.6515681    2.9539582 
  150000   0.86247965 -6.7055846e-05   0.35765625            0            0   0.35765625    1.2829385    1.6405947   -0.6482448 
  155000    0.9027745 2.550185e-05   0.31346609            0            0   0.31346609    1.3428771    1.6563432    2.5268063 
  160000   0.88343745 -3.0985417e-05   0.33422034            0            0   0.33422034    1.3141132    1.6483335   0.59069799 
  165000   0.89889374 1.9417562e-05   0.33622394            0            0   0.33622394    1.3371044    1.6733284    2.3361145 
  170000   0.87951376 -7.981634e-05   0.36991542            0            0   0.36991542    1.3082767    1.6781921   -1.0462056 
  175000   0.90761631 -2.9343577e-05   0.35470655  0.002285076            0   0.35242148    1.3500793    1.7047858   0.70319171 
  180000   0.88188857 -5.7478606e-05   0.37203804 0.0084859108            0   0.36355213    1.3118093    1.6838473  -0.27808914 
  185000   0.86062719 -1.5404447e-05   0.41711897 0.0031470227            0   0.41397195    1.2801829    1.6973019    1.1714968 
  190000   0.89928381 -1.0097854e-05    0.3468894            0            0    0.3468894    1.3376847    1.6845741    1.3399007 
  195000   0.88433578 -3.7388684e-05   0.36951286            0            0   0.36951286    1.3154495    1.6849623   0.40876193 
  200000   0.85918833 -6.1751045e-05   0.41434166            0            0   0.41434166    1.2780426    1.6923843  -0.41538471 
  205000   0.89833388 8.7618632e-05   0.34457178            0            0   0.34457178    1.3362716    1.6808434    4.6715594 
  210000   0.92789642 -6.088562e-05   0.32137098            0            0   0.32137098    1.3802459    1.7016169  -0.37661226 
  215000   0.85613868 -7.785613e-05   0.41077357            0            0   0.41077357    1.2735063    1.6842799  -0.97320937 
  220000   0.85656773 -2.2862705e-05   0.42319888            0            0   0.42319888    1.2741445    1.6973434   0.91696304 
  225000   0.90264719 7.0566684e-05    0.3708194            0            0    0.3708194    1.3426877    1.7135071    4.1221833 
  230000   0.85200706 1.4232918e-06   0.44324044 3.6514482e-05            0   0.44320393    1.2673605    1.7106009    1.7591826 
  235000   0.87089488 -0.00013071486    0.4273703 0.00067197953            0   0.42669832    1.2954561    1.7228264   -2.7389076 
  240000   0.92891277 0.00019657108   0.34373276 0.0013679027            0   0.34236486    1.3817577    1.7254905    8.4351166 
  245000   0.87959771 -6.836485e-05   0.40187503 0.00023836235            0   0.40163667    1.3084016    1.7102766   -0.6232436 
  250000   0.84164451 -0.00011622801   0.46984742            0            0   0.46984742    1.2519462    1.7217936   -2.2454559 
  255000   0.91814811 0.0001379363   0.34560044            0            0   0.34560044    1.3657453    1.7113458    6.4195713 
  260000   0.85797768 -9.6434574e-05   0.45089509            0            0   0.45089509    1.2762418    1.7271369   -1.5644966 
  265000   0.84541162 2.4212388e-05   0.47890658            0            0   0.47890658    1.2575498    1.7364564    2.5629059 
  270000   0.88710839 -6.1099031e-05   0.42351353            0            0   0.42351353    1.3195737    1.7430873  -0.34242631 
  275000   0.87623874 1.6436462e-05   0.44235855            0            0   0.44235855    1.3034051    1.7457637    2.3067949 
  280000   0.90666929 1.8953326e-05   0.42076888            0            0   0.42076888    1.3486706    1.7694395    2.4163797 
  285000   0.89507749 -2.0315822e-05   0.45732236            0            0   0.45732236    1.3314278    1.7887501    1.0953034 
  290000   0.90526595 -8.8073226e-05   0.44826178            0            0   0.44826178    1.3465831    1.7948449   -1.2113879 
  295000   0.94140524 0.00022606306   0.42585175            0            0   0.42585175    1.4003403     1.826192    9.5424778 
  300000   0.92162097 -0.00014445643   0.45917705 0.0025378735            0   0.45663917    1.3709112    1.8300882   -3.1006912 
  305000    0.9536681 -5.3313567e-05   0.40437327  0.007098991            0   0.39727428    1.4185813    1.8229546 0.0031848213 
  310000   0.98908225 0.00028403547   0.34938323 0.0022406748            0   0.34714256    1.4712598    1.8206431     11.51572 
  315000   0.95494008 -0.00030403642   0.40013049 1.2164376e-05            0   0.40011832    1.4204734    1.8206039   -8.5571726 
  320000     0.925247 0.00011561784   0.43007357            0            0   0.43007357    1.3763049    1.8063785    5.7528008 
  325000   0.93796501 -3.3063226e-05   0.43280723            0            0   0.43280723     1.395223    1.8280302   0.69947206 
  330000   0.88882243 -0.00010821584   0.49694578            0            0   0.49694578    1.3221234    1.8190692   -1.8746983 
  335000   0.90335444 -3.2806886e-05   0.47032379 5.0004033e-05            0   0.47027379    1.3437397    1.8140635   0.69425514 
  340000   0.94991345 7.8264366e-05   0.39439486 0.00021251639            0   0.39418235    1.4129963    1.8073911    4.4788148 
  345000    0.9413663 -0.00022633816   0.39186947 0.0027583469            0   0.38911113    1.4002824    1.7921518    -5.933524 
  350000   0.91285243 0.00020261933   0.41677166 0.0019920238            0   0.41477963     1.357868    1.7746396    8.6907129 
  355000    0.8849315 -0.00022933872   0.47617518 0.00062016328            0   0.47555502    1.3163356    1.7925108   -6.0355843 
  360000   0.93408542 8.6708725e-05   0.41734712 0.00011364479            0   0.41723347    1.3894521    1.8067992     4.766457 
  365000    0.9126758 -0.00012654785   0.43417328 0.00042810339            0   0.43374518    1.3576053    1.7917785   -2.5277214 
  370000   0.89357253 7.296764e-05    0.4818196  0.004156984            0   0.47766262    1.3291891    1.8110087    4.3016375 
  375000   0.89541628 3.1584856e-05   0.48615747 0.0068311639            0   0.47932631    1.3319317    1.8180892    2.8961856 
  380000   0.89729276 2.1561456e-05   0.48199759 0.0022480086            0   0.47974958     1.334723    1.8167206    2.5526849 
  385000   0.91206781 -1.8685402e-05   0.47611686 0.00088140249            0   0.47523546    1.3567009    1.8328177    1.1950227 
  390000   0.90478528 0.00013475929   0.48727008 0.0011222427            0   0.48614784    1.3458681    1.8331382    6.4329219 
  395000   0.89576374 -0.00023293664   0.48748738 0.00083761304            0   0.48664977    1.3324486    1.8199359   -6.1309682 
  400000   0.90041583 0.00025195965    0.4838989 3.4594922e-05            0   0.48386431    1.3393685    1.8232674     10.42349 
  405000   0.92060232 -0.00020869718   0.46605087 1.4392973e-05            0   0.46603648    1.3693959    1.8354468   -5.2880836 
  410000    0.9267554 5.5795088e-05    0.4439175 7.1177019e-05            0   0.44384632    1.3785487    1.8224662    3.7269385 
  415000   0.89594649 3.6424883e-05   0.48811074 0.00030434434            0   0.48780639    1.3327204    1.8208311    3.0641338 
  420000   0.88646685 -0.00020709667   0.52099509 0.00026332082            0   0.52073176    1.3186194    1.8396145   -5.2292852 
  425000   0.91054221 0.00018266198   0.48783164 1.034958e-05            0   0.48782129    1.3544315    1.8422632    8.0771254 
  430000   0.90893236 -7.1724972e-05   0.48453366            0            0   0.48453366    1.3520369    1.8365705  -0.61164182 
  435000   0.84047908 7.7897292e-05   0.57614914            0            0   0.57614914    1.2502126    1.8263618     4.485256 
  440000   0.85877312 -8.8648411e-05   0.55721274            0            0   0.55721274     1.277425    1.8346378    -1.191228 
  445000     0.922184 6.9974249e-05   0.49732731            0            0   0.49732731    1.3717487     1.869076    4.2575304 
  450000   0.92399687 -6.1768597e-05    0.4817583            0            0    0.4817583    1.3744453    1.8562036  -0.25216447 
  455000   0.91128119 9.0425076e-05   0.50609676            0            0   0.50609676    1.3555308    1.8616275    4.9481368 
  460000   0.93165188 -4.6774872e-06   0.47592014            0            0   0.47592014    1.3858322    1.8617523    1.7020941 
  465000   0.97221011 4.6668391e-05   0.43752675            0            0   0.43752675    1.4461625    1.8836893     3.476637 
  470000   0.98659325 2.3534397e-05   0.41771132            0            0   0.41771132    1.4675575    1.8852688    2.6885762 
  475000   0.99322442 2.9580517e-05   0.40374105            0            0   0.40374105    1.4774213    1.8811624     2.890844 
  480000   0.97061665 -1.0836217e-05   0.43316559 0.0026788235            0   0.43048677    1.4437923    1.8769579    1.5070816 
  485000   0.92380808 -0.00011965838   0.48319176 0.0014684427            0   0.48172332    1.3741645    1.8573563   -2.2269829 
  490000   0.94254556 0.00013345368   0.43755685 0.0076057719            0   0.42995108    1.4020365    1.8395934    6.3948124 
  495000   0.90245411 -0.00010148864   0.50070851 0.0065634657            0   0.49414504    1.3424005     1.843109   -1.6210366 
  500000    0.9340776 0.00018178651   0.46610163 0.0008319954            0   0.46526963    1.3894404     1.855542    8.0605214 
  505000   0.94911636 -2.8139254e-05   0.44177901            0            0   0.44177901    1.4118106    1.8535896   0.89310305 
  510000   0.95413843 -0.00012890785   0.44224042 0.00098992463            0   0.44125049    1.4192809    1.8615213   -2.5385331 
  515000   0.89688571 0.00021355108   0.49620063  0.006756778            0   0.48944385    1.3341175    1.8303181    9.1195282 
  520000   0.90974914 -0.00026226338   0.51305765 0.0099809574            0   0.50307669    1.3532519    1.8663095   -7.0856138 
  525000    0.9885019 8.3384088e-05   0.37560866 0.0024624325            0   0.37314623    1.4703966    1.8460052    4.6921821 
  530000   0.93826011  0.000143914   0.44882876 0.00045554354            0   0.44837321    1.3956619    1.8444907    6.7567551 
  535000   0.89268371 -0.00022553127   0.49745722 5.7847036e-05            0   0.49739938     1.327867    1.8253242   -5.8728098 
  540000   0.93231576 0.00012891044   0.44938204            0            0   0.44938204    1.3868197    1.8362017    6.2363446 
  545000   0.94394622 7.8589069e-05   0.44503388            0            0   0.44503388      1.40412    1.8491539    4.5316608 
  550000   0.91529521 -0.00014499479   0.50498825 0.00010274495            0    0.5048855    1.3615016    1.8664899   -3.0826656 
  555000   0.92317292 1.8272221e-05   0.47172555 0.0021748527            0   0.46955069    1.3732197    1.8449453    2.4686371 
  560000   0.93762874 2.098404e-06   0.45568622 0.0078810001            0   0.44780522    1.3947227     1.850409    1.9220345 
  565000   0.88319693 -0.0002199394   0.50721644 0.0060358485            0   0.50118059    1.3137554    1.8209719   -5.6862931 
  570000   0.89772466 0.00015585465   0.48557116 0.0016566003            0   0.48391456    1.3353654    1.8209366    7.1407754 
  575000   0.83997994 5.7457209e-05   0.58114155 4.2592185e-05            0   0.58109896    1.2494702    1.8306117    3.7918178 
  580000   0.89832007 -0.00016477057   0.49824188            0            0   0.49824188    1.3362511     1.834493   -3.7896757 
  585000   0.91125985 0.00020118136   0.48744561            0            0   0.48744561     1.355499    1.8429446     8.709935 
  590000   0.85287378 -0.00021954317   0.59064948 0.0004329437            0   0.59021654    1.2686497    1.8592992   -5.6344408 
  595000   0.91292681 9.7673079e-05   0.50848388 0.0020095056            0   0.50647437    1.3579786    1.8664625    5.2003703 
  600000   0.97512524 -5.98632e-05   0.41209227 0.00099628136            0   0.41109599    1.4504988    1.8625911  -0.18073951 
  605000   0.95316311 1.9471715e-06   0.44291702 0.0002561216            0    0.4426609    1.4178301    1.8607471    1.9272106 
  610000   0.90724735 0.00011763386   0.50541642  0.011782348            0   0.49363407    1.3495304    1.8549469    5.8701826 
  615000   0.91364779 -6.0945792e-05   0.48947851  0.023310118            0   0.46616839    1.3590511    1.8485296  -0.23175342 
  620000   0.91412686 -6.5495327e-05   0.49005381 0.0020253178            0    0.4880285    1.3597637    1.8498175   -0.3857563 
  625000    0.9036747 -4.9594788e-05   0.51587492            0            0   0.51587492    1.3442161     1.860091   0.16725562 
  630000    0.9494019 0.00012954876   0.46702006            0            0   0.46702006    1.4122353    1.8792554    6.3011865 
  635000    0.9303813 -0.00021642629   0.50308521 0.00030013253            0   0.50278508    1.3839422    1.8870274   -5.5003233 
  640000   0.95555832 0.0002383368    0.4691661 0.0032194744            0   0.46594662     1.421393    1.8905591    10.025789 
  645000    0.9375471 -0.00020209344   0.48708748 0.0036383702            0   0.48344911    1.3946013    1.8816888   -5.0164339 
  650000   0.97978757 9.8503205e-05   0.40826785 0.0015631413            0   0.40670471     1.457434    1.8657019    5.2279446 
  655000    0.8754207 2.2240291e-05   0.55096922 0.0012881431            0   0.54968108    1.3021883    1.8531575    2.6122928 
  660000   0.87235221 -0.00015606202   0.57141101 0.0013923018            0   0.57001871    1.2976239    1.8690349   -3.4578821 
  665000   0.92308546 0.00017160445   0.48997906 0.0016409556            0    0.4883381    1.3730896    1.8630687    7.7205005 
  670000   0.91619071 3.9654096e-05   0.48619327 0.00012415886            0   0.48606911    1.3628337     1.849027    3.2025534 
  675000   0.97233159 5.9304781e-05   0.42031796            0            0   0.42031796    1.4463432    1.8666612     3.890931 
  680000   0.90592015 -0.00015508269    0.5169332            0            0    0.5169332    1.3475562    1.8644894   -3.4289998 
  685000   0.88869229 0.00019649085   0.55618551 0.00078003693            0   0.55540547    1.3219298    1.8781153    8.5850031 
  690000    0.9175775 -0.0001619653   0.50500591 0.0061905307            0   0.49881538    1.3648965    1.8699025    -3.658513 
  695000   0.88394205 -2.4365316e-05   0.53903803 0.0067645245            0   0.53227351    1.3148638    1.8539018    1.0222324 
  700000   0.90144434 0.00011411085   0.51670653 0.00083146689            0   0.51587506    1.3408985     1.857605    5.7525886 
  705000   0.93501059 -0.00018816401   0.47193512 0.00016886842            0   0.47176625    1.3908282    1.8627634   -4.5599016 
  710000   0.89477634 -7.3890414e-05   0.55370643            0            0   0.55370643    1.3309798    1.8846862  -0.63743989 
  715000   0.89157141 0.00018729006   0.58365407 0.00017259873            0   0.58348147    1.3262125    1.9098665    8.3027005 
  720000   0.93006016 -5.6542413e-05   0.53393645 0.00062238692            0   0.53331407    1.3834645    1.9174009  -0.01258009 
  725000   0.98437376 -3.1800086e-05   0.43538327 0.00099834529            0   0.43438492     1.464256    1.8996392    0.8141963 
  730000   0.88634465 0.00017316736   0.57227241 0.00099191064            0    0.5712805    1.3184377    1.8907101    7.8014893 
  735000   0.93141348 -0.00010451639   0.48947132 0.00071563067            0   0.48875569    1.3854775    1.8749489    -1.692544 
  740000   0.94468929 8.2706972e-05   0.45648315 0.00051835731            0   0.45596479    1.4052253    1.8617085    4.6847731 
  745000   0.91689865 -4.7403506e-05   0.48010917 0.00090626657            0   0.47920291    1.3638867    1.8439959   0.22595625 
  750000   0.94541955 -0.00011556539   0.44856732 0.0019492465            0   0.44661807    1.4063116    1.8548789   -2.0897532 
  755000   0.91133305 -3.3631115e-05   0.50278155  0.001024966            0   0.50175659    1.3556079    1.8583895    0.7104474 
  760000   0.90182931 0.00019077052   0.53322479 0.00042898575            0    0.5327958    1.3414711    1.8746959    8.3863297 
  765000   0.92778373 8.8535265e-05   0.52366976 1.056803e-05            0   0.52365919    1.3800783    1.9037481    4.9257518 
  770000    0.9693361 -0.0001545757   0.43655465            0            0   0.43655465    1.4418874    1.8784421   -3.3977418 
  775000   0.90579795 6.1107068e-05   0.55327661            0            0   0.55327661    1.3473744    1.9006511     3.986439 
  780000   0.89499158 -0.00024270933   0.54981499 7.9925165e-05            0   0.54973506       1.3313     1.881115   -6.4033636 
  785000   0.89475133 1.1448626e-05   0.52772602 0.0005976056            0   0.52712841    1.3309426    1.8586686    2.2494484 
  790000   0.87146256 0.00012813971   0.56525034  0.001751657            0   0.56349869    1.2963006    1.8615509    6.2353864 
  795000   0.87429851 -7.0601217e-05     0.569946 0.0051597849            0   0.56478621     1.300519     1.870465  -0.53938985 
  800000   0.89267147 5.626266e-05    0.5481339 0.0054151041            0    0.5427188    1.3278488    1.8759827    3.7964148 
  805000   0.88969883 0.00013678626   0.54691395 0.0026579342            0   0.54425602     1.323427     1.870341    6.5393121 
  810000   0.85674339 -2.8804687e-05   0.59091299 0.00045853475            0   0.59045446    1.2744058    1.8653188    0.8821188 
  815000   0.92846889 3.9555201e-06   0.52220251 0.00014188249            0   0.52206063    1.3810975       1.9033    2.0383151 
  820000   0.96219939 9.7403915e-05   0.47374533 0.0001206474            0   0.47362468    1.4312716    1.9050169    5.2297372 
  825000   0.98256537 -4.2641123e-05   0.48529315 0.0026953711            0   0.48259778     1.461566    1.9468591   0.49137547 
  830000   0.95443669 7.016032e-05   0.53597786 0.0080889655            0    0.5278889    1.4197246    1.9557024     4.350508 
  835000   0.91213554 -0.00017576641   0.57808828  0.009496637            0   0.56859164    1.3568016    1.9348899   -4.0646036 
  840000   0.86622727 4.8558869e-05   0.61216727 0.0054897597            0   0.60667751    1.2885131    1.9006803    3.5581564 
  845000   0.93764011 -6.1981086e-05   0.49735051 0.0011665729            0   0.49618394    1.3947397    1.8920902  -0.22353088 
  850000   0.87704852 0.0001748558   0.57327107 0.00073204001            0   0.57253903    1.3046097    1.8778807     7.846292 
  855000   0.93501564 1.6648631e-05   0.48575453 0.0027820595            0   0.48297247    1.3908358    1.8765903    2.4448636 
  860000   0.85226807 4.6988271e-05   0.60768926  0.009864155            0   0.59782511    1.2677487     1.875438    3.4793043 
  865000   0.85648106 -9.2915639e-05   0.61857188 0.0015713562            0   0.61700053    1.2740156    1.8925875    -1.278933 
  870000   0.92031455 9.6089571e-05   0.53319511 0.0001254009            0   0.53306971    1.3689679     1.902163    5.1820204 
  875000   0.90329407 -0.00028315677   0.57625869 0.00020379247            0    0.5760549    1.3436499    1.9199086   -7.7451758 
  880000   0.90660356 0.00015191824   0.57321423 6.7601954e-05            0   0.57314663    1.3485728     1.921787    7.1072629 
  885000   0.98163828 6.7420165e-05   0.46965326 0.00043585996            0    0.4692174    1.4601869    1.9298402    4.2311152 
  890000   0.99660954 -8.6140365e-05   0.44568791 0.0087344044            0   0.43695351    1.4824567    1.9281446   -1.0121132 
  895000   0.93913175 5.9544403e-05   0.54411195 0.0079282304            0   0.53618372    1.3969585    1.9410704    3.9735194 
  900000   0.95980871 -6.4232352e-05   0.53580598 0.00046472493            0   0.53534126    1.4277155    1.9635214  -0.22894284 
  905000   0.98073312 8.3675331e-05   0.54337458 0.00034648454            0    0.5430281    1.4588405    2.0022151    4.8583331 
  910000   0.97458649 2.9426346e-05   0.55869142 0.0040472488            0   0.55464417    1.4496974    2.0083888    3.0128081 
  915000    1.0036937 5.1548158e-05   0.53027279  0.010727799            0   0.51954499    1.4929943    2.0232671    3.7827776 
  920000   0.99645067 -0.00012777816   0.54745095 0.0013111353            0   0.54613981    1.4822204    2.0296713   -2.3318233 
  925000    1.0096667 -6.6890454e-06   0.54269806            0            0   0.54269806    1.5018792    2.0445773    1.8162578 
  930000    0.9613025 0.00010538931   0.62538306 0.00013114815            0   0.62525192    1.4299375    2.0553205    5.6526089 
  935000   0.96809782 4.5071795e-05   0.60145457 0.0019329349            0   0.59952163    1.4400455    2.0415001    3.5799507 
  940000    1.0563072 -6.9003102e-05    0.4812735 0.0038434929            0   0.47743001    1.5712569    2.0525304  -0.30277543 
  945000    1.0481675 -0.00011138472   0.44430293  0.026811772            0   0.41749115    1.5591492    2.0034521   -1.7984797 
  950000   0.95372576 0.00016654553   0.57654801   0.01052132            0   0.56602669    1.4186671    1.9952151    7.6799691 
  955000   0.99395642 -4.1895734e-05   0.52398271  0.015501006            0   0.50848171    1.4785102    2.0024929   0.57245185 
  960000   0.94360433 0.00016434079   0.59363462 0.0038284772            0   0.58980614    1.4036114    1.9972461     7.606745 
  965000    0.9687132 -4.9042576e-05   0.55640353 0.0024873706            0   0.55391616    1.4409609    1.9973644    0.3233778 
  970000   0.96830168 0.00013271362   0.57449277 0.0022770137            0   0.57221576    1.4403487    2.0148415    6.5447997 
  975000    0.9467561 -3.5932401e-05   0.62147669 0.0041125172            0   0.61736418    1.4082997    2.0297764   0.80328379 
  980000    0.9723452 3.4550878e-05   0.58148796 0.0014559744            0   0.58003199    1.4463635    2.0278514    3.2071881 
  985000   0.95159507 -0.0001115462   0.61304988 0.00023723072            0   0.61281265    1.4154977    2.0285475    -1.778896 
  990000   0.98967508 2.3294457e-05   0.56343628 0.0011328888            0    0.5623034    1.4721417     2.035578    2.8306954 
  995000    1.0687242 -8.3380854e-05   0.46025809 0.0079638843            0    0.4522942    1.5897273    2.0499854  -0.79608109 
 1000000    1.0173989 -1.9771551e-06   0.53605795 0.0060199448            0     0.530038    1.5133808    2.0494387    1.9819519 
 1005000    1.0181352 -1.8832406e-05   0.53489125 0.0070342748            0   0.52785698    1.5144762    2.0493674    1.4065546 
 1010000     1.005061 -0.00016155154   0.55784205 0.0030523057            0   0.55478974    1.4950283    2.0528703   -3.4614223 
 1015000    1.0874661 0.00023515556   0.45677407 2.2354164e-05            0   0.45675171    1.6176058    2.0743799    10.101023 
 1020000    1.0675747 -3.8538414e-05   0.48889442            0            0   0.48889442    1.5880173    2.0769117    0.7614672 
 1025000   0.99675243 1.6250843e-05   0.56931621 3.8210188e-05            0     0.569278    1.4826692    2.0519855    2.6066809 
 1030000   0.99142302 -9.9460261e-05   0.57918684 0.00017429982            0   0.57901254    1.4747417    2.0539286   -1.3409817 
 1035000   0.93148741 0.00011297539   0.65495151 0.00045275957            0   0.65449875    1.3855875     2.040539    5.8967657 
 1040000   0.95764735 2.2358843e-06   0.60079539 0.00041849549            0   0.60037689    1.4245004    2.0252958     2.101614 
 1045000    1.0309192 0.00010925934   0.46231915 0.0001713428            0   0.46214781    1.5334923    1.9958115     5.725197 
 1050000   0.96725102 -8.5604871e-05   0.54504345 0.0031838163            0   0.54185963    1.4387859    1.9838293  -0.93815025 
 1055000    1.0145297 -5.2322448e-05   0.47277074  0.011888097            0   0.46088264    1.5091129    1.9818836    0.1959441 
 1060000   0.91734231 -0.0001240098   0.59039681 0.0056439249            0   0.58475289    1.3645467    1.9549435   -2.2779245 
 1065000   0.93273675 -7.2464894e-05   0.54895742   0.01528884            0   0.53366858    1.3874459    1.9364033  -0.53706506 
 1070000   0.90297671 0.00025056947   0.58439715 0.0061903705            0   0.57820677    1.3431779     1.927575    10.480346 
 1075000   0.93721626 -0.00018318681   0.52621424  0.009373574            0   0.51684067    1.3941092    1.9203234   -4.3324529 
 1080000    0.9210672 0.00019012029   0.54081124  0.014516663            0   0.52629458    1.3700875    1.9108987    8.4003378 
 1085000   0.93423811 -9.2266547e-05   0.49878278 0.0040533841            0    0.4947294    1.3896792     1.888462   -1.2609028 
 1090000   0.91510339 0.0001879476   0.53212769 0.0007616026            0   0.53136608    1.3612163     1.893344     8.308622 
 1095000   0.94457435 -0.00019016294   0.48768817 0.0011667422            0   0.48652143    1.4050544    1.8927425   -4.5981526 
 1100000   0.93835462 0.00010831201   0.52321183  0.002470294            0   0.52074153    1.3958025    1.9190143    5.6160643 
 1105000    1.0511365 -7.0835939e-05   0.35259876 0.0091648756            0   0.34343389    1.5635656    1.9161644  -0.50170235 
 1110000   0.94234918 -0.00012292423   0.49808316 0.0050363617            0    0.4930468    1.4017444    1.8998276    -2.295986 
 1115000   0.86985055 0.00017729428   0.60621295 0.00088837243            0   0.60532458    1.2939027    1.9001156    7.9517604 
 1120000   0.91326717 -0.00012576142   0.53398843 0.0026096181            0   0.53137882    1.3584849    1.8924734    -2.400183 
 1125000   0.85834549 5.9601572e-05   0.58432871 0.0047167761            0   0.57961193    1.2767889    1.8611176     3.895518 
 1130000   0.94138117 -0.00014039918   0.48242223 0.0025769287            0    0.4798453    1.4003045    1.8827267   -2.9095653 
 1135000    0.9287657 -6.5747286e-05    0.5044656 0.00056573927            0   0.50389986     1.381539    1.8860046  -0.35816946 
 1140000   0.96465667 6.0755497e-05   0.44793575 9.6846238e-07            0   0.44793478    1.4349268    1.8828625    3.9566502 
 1145000   0.95802064 -2.2226946e-05   0.47998651 0.0012781214            0   0.47870839    1.4250557    1.9050422    1.1463625 
 1150000   0.96587914 -3.8382391e-05   0.47388623 0.0043353679            0   0.46955087    1.4367452    1.9106315    0.6005125 
 1155000   0.87769994 1.055907e-06   0.61074457 0.0050127054            0   0.60573186    1.3055787    1.9163232    1.9523649 
 1160000   0.90583841 4.6717848e-05   0.55056463 0.0031416295            0     0.547423    1.3474346    1.8979993    3.4926351 
 1165000   0.88808595 0.00021387807   0.55868699  0.009400704            0   0.54928629    1.3210279    1.8797148    9.1800862 
 1170000    0.8940056 9.2117318e-05   0.56526754   0.01798265            0   0.54728489    1.3298333    1.8951009     5.039372 
 1175000   0.88604478 -0.00011277018   0.58291573 0.0039312581            0   0.57898448    1.3179916    1.9009073   -1.9483149 
 1180000   0.88984524 0.00013525689   0.56991581 0.0023880657            0   0.56752774    1.3236448    1.8935606    6.5103292 
 1185000   0.87643583 -5.1007667e-05   0.56955477 0.0078067866            0   0.56174798    1.3036983    1.8732531   0.13219136 
 1190000    0.8754403 0.00010079246   0.57576844  0.010962608            0   0.56480583    1.3022174    1.8779859    5.3183686 
 1195000   0.87507089 -0.00017567862   0.57943721 0.0077860617            0   0.57165115    1.3016679    1.8811052   -4.1153919 
 1200000   0.89329309 3.3632624e-05   0.54543801 0.0053808116            0    0.5400572    1.3287735    1.8742115    3.0222051 
 1205000   0.90795932 1.5960893e-05   0.51746882 0.0046668406            0   0.51280198    1.3505895    1.8680583    2.4128568 
 1210000   0.92840153 6.2063739e-05   0.47956377  0.002231792            0   0.47733198    1.3809973    1.8605611    3.9790033 
 1215000   0.85050332 0.00016904528   0.58929024 0.0058825679            0   0.58340767    1.2651237    1.8544139    7.6244927 
 1220000   0.90840971 -6.3614977e-05   0.50968572 0.0029421021            0   0.50674362    1.3512594    1.8609452  -0.31044605 
 1225000   0.89955133 0.00010355789   0.51179729 0.00088288655            0    0.5109144    1.3380826    1.8498799    5.3846559 
 1230000   0.92981947 -0.00015197119   0.48922561 0.0014655316            0   0.48776008    1.3831065    1.8723321   -3.3149513 
 1235000    1.0009393 0.0001068982   0.37992587 0.0014872655            0    0.3784386    1.4888971     1.868823    5.5176148 
 1240000   0.90366167 4.2440205e-05   0.51464299 0.0011456137            0   0.51349738    1.3441967    1.8588397    3.3074654 
 1245000   0.85559863 -0.00018557016   0.59848589 0.0026876828            0   0.59579821     1.272703    1.8711888   -4.4629393 
 1250000   0.90695658 0.00018263813   0.52134828 0.0023104098            0   0.51903787    1.3490979    1.8704462    8.1044942 
 1255000     0.928354 -0.00018092605   0.49833981 0.0010385792            0   0.49730123    1.3809266    1.8792664   -4.2963427 
 1260000   0.93815694 0.00011588018    0.4991219 0.0072182956            0   0.49190361    1.3955085    1.8946304    5.8500073 
 1265000   0.90705062 0.0001510423   0.52060816 0.0056854885            0   0.51492267    1.3492378     1.869846     7.025423 
 1270000   0.91975155 -0.00017151543   0.47449982  0.013313897            0   0.46118592    1.3681304    1.8426303   -4.0117631 
 1275000   0.85088417 8.1114132e-05   0.57363154   0.01250495            0   0.56112659    1.2656902    1.8393217    4.6080174 
 1280000   0.91658858 -9.6857766e-05   0.49434804 0.0015272094            0   0.49282084    1.3634255    1.8577736   -1.4483048 
 1285000   0.88884718 8.075684e-05   0.55071905 0.00040876212            0   0.55031029    1.3221602    1.8728792    4.6293794 
 1290000    0.9257394 8.2603286e-05   0.51002594 0.00037566021            0   0.50965028    1.3770374    1.8870633    4.7065888 
 1295000   0.91485826 -0.00025407808   0.54740613 0.00098840644            0   0.54641772    1.3608517    1.9082578   -6.7642739 
 1300000   0.92480619 -1.0295657e-05   0.54276014 0.0026215866            0   0.54013856    1.3756492    1.9184094    1.5669843 
 1305000   0.96878062 -3.1513914e-05   0.46125336 0.0014896437            0   0.45976371    1.4410612    1.9023145   0.82663961 
 1310000   0.93634565 -4.817557e-05     0.504782 0.0058798742            0   0.49890213    1.3928142    1.8975962   0.25320337 
 1315000   0.92954336 -7.832722e-06   0.52475203 0.0083613685            0   0.51639066    1.3826958    1.9074478    1.6400909 
 1320000   0.89167289 -6.86978e-05   0.57231984 0.0021476607            0   0.57017218    1.3263634    1.8986833  -0.44620164 
 1325000   0.96064761 -2.7851447e-05   0.46319741 0.00073006285            0   0.46246734    1.4289633    1.8921607     0.941498 
 1330000   0.85702914 2.4200955e-05   0.65375028 0.00039044312            0   0.65335983    1.2748308    1.9285811    2.7546404 
 1335000   0.92892821 4.2298721e-05   0.54912736  0.003616212            0   0.54551114    1.3817807    1.9309081    3.3747044 
 1340000   0.88291922 -0.00016758998   0.62036172  0.013975756            0   0.60638596    1.3133423    1.9337041   -3.7867006 
 1345000   0.94571704 -7.0577466e-06    0.5303779 0.0063818174            0   0.52399608    1.4067541     1.937132    1.6962276 
 1350000   0.91205794 -6.4098148e-05   0.60698228 0.0013771179            0   0.60560516    1.3566862    1.9636685  -0.22421498 
 1355000   0.89579105 -8.7040396e-06   0.64788015            0            0   0.64788015    1.3324892    1.9803693    1.6832714 
 1360000   0.96186065 0.0002760376   0.56551341 1.515063e-05            0   0.56549826    1.4307677    1.9962811    11.418365 
 1365000   0.93924143 -0.00011112354   0.61699664 0.0021967753            0   0.61479986    1.3971216    2.0141183   -1.7788986 
 1370000   0.94501628 6.5948849e-05   0.62486608  0.008206557            0   0.61665952    1.4057117    2.0305778    4.2816318 
 1375000    1.0283038 0.00016298719   0.50391594 0.0040046828            0   0.49991125    1.5296019    2.0335178     7.596814 
 1380000   0.93206475 8.6887986e-06   0.63886199 0.0055278892            0    0.6333341    1.3864463    2.0253083     2.321886 
 1385000   0.97835143 -1.1868637e-05   0.57700795  0.032223563            0   0.54478438    1.4552977    2.0323057    1.6271895 
 1390000   0.90990706 -8.5217825e-05   0.68105581  0.020887396            0   0.66016841    1.3534867    2.0345426  -0.87422587 
 1395000   0.96210616 -0.00017336371   0.62610622 0.0074974792            0   0.61860874    1.4311329    2.0572391    -3.860242 
 1400000   0.96427966 8.0377187e-05   0.63523237  0.011133569            0    0.6240988     1.434366    2.0695984    4.8131397 
 1405000    1.0227003 -0.00010367165   0.55674226  0.012537821            0   0.54420444    1.5212668     2.078009   -1.4606501 
 1410000   0.96887686 -8.5333411e-06    0.6592731  0.010543643            0   0.64872946    1.4412043    2.1004774    1.8092061 
 1415000     1.084444 -1.317388e-05   0.52258606 0.0089210911            0   0.51366497    1.6131105    2.1356966    1.6860281 
 1420000    1.0434428 4.5619781e-05   0.57893381 0.0069976115            0    0.5719362    1.5521212     2.131055    3.6882102 
 1425000     1.025939 -0.00010192064   0.61548674 0.0050802846            0   0.61040646    1.5260842     2.141571     -1.33732 
 1430000    1.0094247 3.3856638e-05   0.63235386 0.0062459134            0   0.62610795    1.5015193    2.1338731     3.289513 
 1435000     1.045534 -0.00029178899    0.5731953 0.0030564151            0   0.57013888    1.5552318    2.1284271   -7.8313038 
 1440000    1.0394351 5.2865254e-05   0.57342089 0.00097428752            0    0.5724466    1.5461597    2.1195806    3.9240479 
 1445000     1.017029 1.6072985e-05   0.59503741 0.00032438622            0   0.59471303    1.5128306     2.107868    2.6564926 
 1450000    1.0184334 -7.3786138e-05   0.59554088 0.0033598179            0   0.59218106    1.5149196    2.1104605  -0.40810634 
 1455000   0.99374941 -4.7162051e-05   0.61835801 0.0076456205            0   0.61071239    1.4782022    2.0965602   0.48676223 
 1460000   0.97143616 3.9163895e-05    0.6444336  0.017603235            0   0.62683036    1.4450113    2.0894449    3.4262392 
 1465000   0.99123834 7.7253797e-05   0.61942494  0.011344021            0   0.60808092     1.474467     2.093892    4.7308216 
 1470000    1.0674686  2.63349e-05   0.47393742 0.0090513259            0   0.46488609    1.5878595     2.061797    2.9606949 
 1475000   0.93352767 -2.002076e-05    0.6813215 0.0085953199            0   0.67272618    1.3886224    2.0699439    1.3865686 
 1480000    1.0175635 -0.00021779212   0.58081534  0.020266887            0   0.56054846    1.5136257     2.094441   -5.3395299 
 1485000    0.9732684 5.3654158e-05   0.65309546  0.015370983            0   0.63772448    1.4477367    2.1008322    3.9322275 
 1490000   0.99320235 6.5880119e-05   0.64328642 0.0036937078            0   0.63959271    1.4773885    2.1206749     4.369383 
 1495000   0.98681327 4.8813617e-05   0.66643474 0.0072786148            0   0.65915612    1.4678847    2.1343195     3.800491 
 1500000    1.0195244 -2.7557119e-05   0.59704621  0.024866446            0   0.57217976    1.5165426    2.1135888    1.1729725 
 1505000   0.90535114 -4.1686406e-05   0.74232783 0.0077335682            0   0.73459426    1.3467098    2.0890377   0.66614165 
 1510000    1.0330246  -4.1777e-05   0.54788443 0.0061496481            0   0.54173479    1.5366242    2.0845086   0.65852032 
 1515000    0.9973555 -2.8661424e-05   0.61996215  0.021580438            0   0.59838172    1.4835663    2.1035285    1.1252185 
 1520000    1.0321463 0.00018864356   0.56215283  0.015697292            0   0.54645554    1.5353176    2.0974704    8.5365039 
 1525000   0.97150174 2.250919e-06   0.64859035 0.0074329589            0   0.64115739    1.4451088    2.0936992    2.1705306 
 1530000    1.0378437 8.2017681e-05   0.54177453 0.0035248992            0   0.53824963    1.5437925     2.085567    4.8851039 
 1535000    1.0102955 -3.2407199e-05   0.57784349 0.0072320797            0   0.57061141    1.5028146    2.0806581   0.97449238 
 1540000    1.0307455 -0.00020646193   0.55648487 0.0041047279            0   0.55238015    1.5332339    2.0897187   -4.9575153 
 1545000   0.93945975 0.00022426336   0.67131629 0.0063682161            0   0.66494807    1.3974464    2.0687627    9.7236188 
 1550000   0.96406965 4.3395071e-05   0.66008955   0.01286695            0    0.6472226    1.4340536    2.0941432    3.5753616 
 1555000   0.97410355 1.9672844e-05   0.65862698  0.022968984            0   0.63565799     1.448979     2.107606    2.7791058 
 1560000   0.94377758 -0.00020132265   0.66968886  0.019193266            0   0.65049559    1.4038692     2.073558    -4.798255 
 1565000   0.97057962 0.00017426229   0.62672581  0.020398848            0   0.60632696    1.4437372     2.070463    8.0186158 
 1570000   0.99306744 -6.4838971e-05   0.57073953    0.0215214            0   0.54921813    1.4771878    2.0479273  -0.16524285 
 1575000   0.94219348 -6.2145748e-05   0.66286318  0.015422606            0   0.64744057    1.4015128     2.064376 -0.056865541 
 1580000   0.99792461 -9.4565484e-05   0.59112483 0.0042596367            0   0.58686519    1.4844129    2.0755377   -1.1522975 
 1585000   0.94712563 -0.00011052058   0.68039628 0.00090850822            0   0.67948777    1.4088494    2.0892457   -1.6831903 
 1590000    1.0290405 -3.4241478e-05   0.53993291 0.0016548675            0   0.53827804    1.5306978    2.0706307   0.90185488 
 1595000   0.93586714 0.0001453539   0.70444599 0.0017156417            0   0.70273035    1.3921024    2.0965484    7.0579615 
 1600000   0.89562623 -7.2585769e-05   0.75468153 0.0030694566            0   0.75161207     1.332244    2.0869255  -0.39066869 
 1605000    1.0075946 3.9680163e-05   0.59454876  0.015927511            0   0.57862125     1.498797    2.0933458     3.447762 
 1610000    1.0075653  -0.00010448   0.58138629  0.014825092            0    0.5665612    1.4987534    2.0801397   -1.4861111 
 1615000    1.0199719 -0.0001052438    0.5755099  0.013317555            0   0.56219234    1.5172082    2.0927181   -1.4996036 
 1620000   0.99855499 -6.2169099e-05   0.59481558  0.021493686            0    0.5733219    1.4853506    2.0801661 -0.041872429 
 1625000   0.97323312 0.00030029379   0.64327424 0.0071863156            0   0.63608793    1.4476843    2.0909585    12.340986 
 1630000   0.97932711 7.7304611e-05   0.65164477 0.0029256711            0    0.6487191    1.4567491    2.1083938    4.7470579 
 1635000   0.93200783 -5.2193507e-05   0.70823741 0.0045438269            0   0.70369359    1.3863617    2.0945991   0.31306068 
 1640000    1.0299964 -3.1411337e-05   0.57313703 0.0045423134            0   0.56859472    1.5321196    2.1052566     1.033083 
 1645000   0.99996831 9.3001333e-05   0.61774011 0.0061437014            0   0.61159641    1.4874529     2.105193    5.2796385 
 1650000    1.0061178 7.7762688e-05   0.60762262  0.019050465            0   0.58857216    1.4966003    2.1042229    4.7585227 
 1655000   0.96645434 -3.989785e-05   0.64773102  0.039012798            0   0.60871823    1.4376008    2.0853319   0.72348525 
 1660000   0.96757264 -6.8404109e-05   0.65976358  0.026489362            0   0.63327422    1.4392643    2.0990279  -0.23583235 
 1665000   0.98938581 0.00018107012   0.60092376  0.014279332            0   0.58664443    1.4717114    2.0726352     8.253162 
 1670000   0.93643206 -8.4276229e-05   0.64616998 0.0030944334            0   0.64307555    1.3929427    2.0391127  -0.83751595 
 1675000   0.99420092 0.00014796684   0.58598357 4.6284528e-05            0   0.58593728    1.4788739    2.0648574    7.1154589 
 1680000   0.91348618 -2.5813309e-05   0.71878008            0            0   0.71878008    1.3588107    2.0775908    1.1964965 
 1685000    1.0550584 -9.4586508e-05   0.51089037            0            0   0.51089037    1.5693994    2.0802898    -1.148263 
 1690000    1.0067405 -0.00012483829   0.57748817 0.0073680401            0   0.57012013    1.4975265    2.0750146   -2.1861324 
 1695000   0.92594381 7.1069779e-05   0.68983112  0.014715914            0   0.67511521    1.3773414    2.0671725     4.493021 
 1700000   0.93489406 -9.4701472e-05   0.64199951 0.0020478834            0   0.63995163    1.3906549    2.0326544   -1.1998225 
 1705000   0.95269718 -5.2874416e-05   0.62362617 0.0036239725            0    0.6200022    1.4171371    2.0407632   0.23598315 
 1710000   0.87312409 -0.00013630688   0.72133181 0.0081662634            0   0.71316554    1.2987721    2.0201039   -2.6325043 
 1715000   0.93868437 -7.6079476e-05   0.61128867  0.019131298            0   0.59215737     1.396293    2.0075817  -0.58926445 
 1720000   0.94914878 5.3013925e-05   0.58620763 0.0067292997            0   0.57947833    1.4118588    1.9980664    3.8076084 
 1725000   0.90574406 4.0088272e-05   0.67295884  0.029816084            0   0.64314276    1.3472943    2.0202531    3.3885995 
 1730000   0.99015121 1.9500467e-05   0.53404452 0.0036817157            0    0.5303628    1.4728499    2.0068944    2.6725104 
 1735000   0.92444146 -6.267902e-05   0.64933459 0.00061977993            0   0.64871481    1.3751067    2.0244413   -0.1150026 
 1740000   0.99359193 -0.00017044063   0.53998423 0.0026233696            0   0.53736086     1.477968    2.0179522   -3.7997546 
 1745000   0.93966194 -0.00013920882   0.61493918  0.005787843            0   0.60915134    1.3977471    2.0126863   -2.7389747 
 1750000   0.90031215 0.00016100761    0.6845013 0.0028627546            0   0.68163855    1.3392143    2.0237156     7.519442 
 1755000   0.90421135 -9.6947423e-05   0.67464021 0.0018467534            0   0.67279345    1.3450144    2.0196546   -1.2894841 
 1760000   0.94939339 -3.0402644e-05   0.61054272 0.0076141353            0   0.60292858    1.4122227    2.0227654   0.98502179 
 1765000   0.94739813 -1.7887673e-05   0.60169702  0.014651161            0   0.58704586    1.4092547    2.0109517    1.4003858 
 1770000   0.94737223 -0.00022432716   0.58646242 0.0064867384            0   0.57997568    1.4092162    1.9956786   -5.6613552 
 1775000   0.88062093 1.7794747e-05    0.7077781  0.016589947            0   0.69118816    1.3099236    2.0177017    2.6250958 
 1780000   0.91484403 -0.00019387178   0.65351856  0.013350318            0   0.64016824    1.3608305    2.0143491   -4.6031409 
 1785000   0.97021847 -7.3034005e-05   0.58061472  0.015693862            0   0.56492085       1.4432    2.0238147  -0.46907937 
 1790000    1.0170603 7.0047999e-05     0.508216  0.022440717            0   0.48577529    1.5128771    2.0210931    4.4120648 
 1795000   0.89693475 9.8279997e-05   0.69732793  0.014502522            0   0.68282541    1.3341904    2.0315184    5.3861423 
 1800000   0.97249395 8.4164816e-05   0.57101257 0.0092339278            0   0.56177864    1.4465847    2.0175973     4.890423 
 1805000   0.96466444 4.4781743e-05   0.58449141   0.03462792            0   0.54986349    1.4349384    2.0194298    3.5479799 
 1810000   0.94646191 -1.8816733e-05   0.60939055 0.0079095422            0   0.60148101    1.4078621    2.0172526    1.3749748 
 1815000   0.97957018 0.00012256261   0.54974806  0.011852867            0   0.53789519    1.4571106    2.0068587     6.190329 
 1820000   0.97925106 -3.9183964e-05   0.57320573  0.016931789            0   0.55627394     1.456636    2.0298417   0.69236236 
 1825000   0.93235315 3.4135537e-06   0.64610537  0.008094813            0   0.63801056    1.3868753    2.0329807    2.1494967 
 1830000   0.89308202 -0.00010850972   0.68957943  0.026537834            0    0.6630416    1.3284595    2.0180389   -1.6857595 
 1835000   0.92828922 -6.1706754e-05   0.62325514  0.006930823            0   0.61632432    1.3808302    2.0040854  -0.10217185 
 1840000   0.98990451 -6.13231e-05   0.53400777 0.00058416807            0   0.53342361     1.472483    2.0064907 -0.086671069 
 1845000   0.92423882 9.9892238e-05   0.62513185  0.020102367            0   0.60502948    1.3748052    1.9999371    5.4095922 
 1850000   0.98101458 4.1344719e-05   0.54929246 0.0072602585            0    0.5420322    1.4592592    2.0085516    3.4197847 
 1855000   0.91368208 -4.3070195e-05   0.64279077  0.033157523            0   0.60963324    1.3591021    2.0018929   0.53176356 
 1860000   0.95142859 6.4148572e-05   0.56634512   0.01824466            0   0.54810046      1.41525    1.9815951    4.1711997 
 1865000    1.0054935 5.5047268e-05   0.49638289  0.010364432            0   0.48601846    1.4956715    1.9920544    3.8710012 
 1870000   0.98307782 8.5487221e-05   0.50048749 0.0076732942            0    0.4928142    1.4623283    1.9628157    4.8807796 
 1875000   0.91041459 -6.3335067e-05   0.59527165  0.021196815            0   0.57407484    1.3542417    1.9495134  -0.21232359 
 1880000   0.96755141 -0.00019102461   0.50728007  0.024907736            0   0.48237234    1.4392327    1.9465128   -4.5737939 
 1885000    1.0228317 2.3948981e-05    0.4262413  0.011423373            0   0.41481792    1.5214622    1.9477035    2.7651621 
 1890000   0.93243423 0.00014792211   0.56624041 0.0048779877            0   0.56136242    1.3869959    1.9532363    7.0023111 
 1895000   0.96960588 7.2845443e-05   0.51448995 0.0070446217            0   0.50744533    1.4422887    1.9567787    4.4432365 
 1900000   0.86652674 -0.0001269034   0.67147921 0.0076390182            0   0.66384019    1.2889585    1.9604377   -2.3711983 
 1905000   0.97801548 -5.2018923e-05   0.52687258 0.0063276659            0   0.52054491     1.454798    1.9816706   0.20609135 
 1910000    1.0089213 6.2395503e-05   0.49784907 0.0040856054            0   0.49376346    1.5007704    1.9986195     4.128386 
 1915000   0.99317728 0.00011740978   0.55403898   0.00415334            0   0.54988564    1.4773512    2.0313902    6.0389774 
 1920000   0.93687966 7.4953097e-05   0.64997352   0.03367585            0   0.61629767    1.3936085     2.043582    4.6019811 
 1925000   0.98602446 -5.1635048e-05   0.56999267  0.042683643            0   0.52730903    1.4667114     2.036704   0.27422776 
 1930000    1.0291681 -8.0803545e-05   0.52151011  0.020913246            0   0.50059687    1.5308875    2.0523977  -0.70569666 
 1935000   0.95644086 4.4368949e-05   0.62440494  0.023866779            0   0.60053816    1.4227058    2.0471107    3.5615708 
 1940000    1.0561553 2.2942881e-05   0.47536205  0.011471728            0   0.46389032     1.571031     2.046393      2.82951 
 1945000    1.0730096 -0.00010939902   0.46304243  0.014679785            0   0.44836265    1.5961018    2.0591442   -1.6750089 
 1950000   0.94528486 2.7917578e-05   0.62864194  0.030201136            0    0.5984408    1.4061112    2.0347532    2.9876732 
 1955000   0.97552077 -5.1220968e-05   0.55551274  0.012448075            0   0.54306466    1.4510871    2.0065999   0.25825751 
 1960000   0.96625809 4.6966052e-05   0.57177237 0.0092838217            0   0.56248854    1.4373089    2.0090813    3.6121892 
 1965000    1.0100714 2.820128e-05   0.52246606 0.0095886404            0   0.51287742    1.5024812    2.0249473     2.987551 
 1970000    1.0383754 0.0001628089   0.48196992 0.0076727718            0   0.47429715    1.5445834    2.0265533    7.5837638 
 1975000    1.0094428 -4.796008e-05   0.53380628  0.016943256            0   0.51686302    1.5015461    2.0353524     0.398315 
 1980000    1.0445654 -9.7412081e-05   0.49254095  0.016578829            0   0.47596212     1.553791    2.0463319   -1.2786671 
 1985000   0.99911981 -2.4595846e-05   0.58650955  0.025400851            0    0.5611087    1.4861907    2.0727003    1.2331621 
 1990000    1.0491838 1.6485585e-05   0.52475353  0.011069511            0   0.51368402    1.5606608    2.0854144    2.6481223 
 1995000    1.0422812 8.2924241e-05   0.53958976  0.006387154            0    0.5332026    1.5503933    2.0899831    4.9204638 
 2000000     1.034953 -1.975392e-05   0.53131637  0.021959881            0   0.50935649    1.5394926    2.0708089    1.3965418 
 2005000   0.95834157 -3.2158686e-05   0.63040925  0.014126196            0   0.61628306    1.4255331    2.0559423   0.95825919 
 2010000     1.031005 -0.00017063262   0.56030391   0.00667643            0   0.55362748      1.53362    2.0939239   -3.7303363 
 2015000    1.1173562 -1.7284632e-05   0.44916449 0.0033542867            0   0.44581021    1.6620673    2.1112318    1.5212497 
 2020000    1.0694262 3.4787733e-05   0.54123798 0.0014748662            0   0.53976311    1.5907715    2.1320095    3.3194308 
 2025000    1.0206428 -8.2725966e-06   0.59355949 0.0026207117            0   0.59093878    1.5182061    2.1117656    1.8293943 
 2030000    1.1110081 8.9405288e-05   0.45597391 0.0063446608            0   0.44962925    1.6526245    2.1085984    5.1602989 
 2035000    1.0782181 6.0941335e-06    0.5077369 0.0064377514            0   0.50129915    1.6038494    2.1115863    2.3195994 
 2040000    1.0444629 8.6080085e-06   0.54506737   0.03286332            0   0.51220405    1.5536385    2.0987059    2.3925259 
 2045000     1.044224 1.6217594e-05   0.55725463  0.022738334            0    0.5345163    1.5532831    2.1105378    2.6640983 
 2050000    1.0813544 0.00010564889   0.51144838  0.022397546            0   0.48905084    1.6085146     2.119963    5.7261118 
 2055000     1.064395 -0.00016132978   0.53928198 0.0059856057            0   0.53329637    1.5832876    2.1225696   -3.3841537 
 2060000    1.0417628 -7.7258569e-05   0.57383464  0.016904439            0    0.5569302    1.5496222    2.1234569  -0.51363563 
 2065000    1.0568284 0.00012312075   0.55520507  0.011055531            0   0.54414954    1.5720322    2.1272373     6.329759 
 2070000    1.0926449 -0.00011630793   0.53463835  0.060469314            0   0.47416903    1.6253093    2.1599476   -1.8100298 
 2075000    1.0125442 -8.0960455e-06    0.6127746  0.019659908            0   0.59311469    1.5061596    2.1189342    1.8425891 
 2080000    1.1218851 0.00010119682   0.45364003 0.0068273358            0    0.4468127    1.6688041    2.1224441    5.5766289 
 2085000    1.0729143 -1.7291154e-05   0.52937586 0.00037453471            0   0.52900133      1.59596    2.1253358    1.5351311 
 2090000    1.0250818 -2.536557e-05   0.59153706 0.00013312443            0   0.59140393    1.5248091    2.1163462    1.2505347 
 2095000    1.0842164 2.9107401e-05   0.52466632            0            0   0.52466632    1.6127718    2.1374382    3.1309708 
 2100000      1.10248 -0.00010289528   0.50676681 0.0024620623            0   0.50430475     1.639939    2.1467058   -1.3654532 
 2105000    1.0872817 -0.00011541982   0.53488876 0.0099098732            0   0.52497889    1.6173316    2.1522203    -1.787443 
 2110000    1.0891597 4.9265013e-05   0.51307074  0.016813402            0   0.49625734     1.620125    2.1331958    3.8147749 
 2115000    1.1024674 6.8369494e-05   0.48526216   0.01607945            0   0.46918271    1.6399203    2.1251824    4.4588612 
 2120000    1.0483559 5.7602105e-06   0.54530516  0.011787759            0    0.5335174    1.5594294    2.1047346    2.3013498 
 2125000    1.0464443 -0.00016029282   0.53448528 0.0089169636            0   0.52556831    1.5565859    2.0910711    -3.380257 
 2130000    1.0963667 -8.5906807e-05   0.45479882 0.0022017975            0   0.45259702    1.6308454    2.0856442  -0.84664146 
 2135000    1.0638959 -5.0055595e-05   0.51623505 0.0086377198            0   0.50759733    1.5825452    2.0987803   0.39021594 
 2140000    1.1048404 8.6242011e-05   0.47870777  0.022060355            0   0.45664741      1.64345    2.1221578    5.0658851 
 2145000    1.0516249 0.00013922129   0.53839762   0.01159308            0   0.52680454    1.5642921    2.1026897    6.8547765 
 2150000    1.1290554 1.0002967e-05   0.42627883  0.013195758            0   0.41308307    1.6794699    2.1057488    2.4471833 
 2155000     1.084458 2.7474836e-05   0.49000127  0.017802682            0   0.47219858    1.6131313    2.1031326    3.0409403 
 2160000    1.0531346 -2.1458807e-05   0.53964287  0.018195301            0   0.52144757    1.5665377    2.1061806    1.3737199 
 2165000    1.1092672 -0.00013784781   0.47424914 0.0056652089            0   0.46858393    1.6500349    2.1242841   -2.5809211 
 2170000     1.172509 0.00016216122   0.39476722 0.00054282951            0   0.39422439    1.7441071    2.1388743    7.6739774 
 2175000     1.150906 9.4667431e-05   0.44128375 0.00027671641            0   0.44100704    1.7119727    2.1532565    5.3845714 
 2180000    1.1099444 -6.1374354e-05   0.52834222  0.035343071            0   0.49299915    1.6510424    2.1793846  0.084473295 
 2185000    1.1065811 0.00013868268   0.50542811  0.020505653            0   0.48492246    1.6460394    2.1514676    6.8851696 
 2190000    1.0660974 5.1433927e-05   0.57048049   0.02135793            0   0.54912256    1.5858198    2.1563003    3.9119117 
 2195000     1.096877 -0.00020836378   0.52827342  0.024145647            0   0.50412777    1.6316045    2.1598779   -4.9522724 
 2200000    1.1027751 -5.5043233e-05   0.55703827 0.0081522127            0   0.54888606     1.640378    2.1974162   0.31860723 
 2205000    1.2139274 2.043884e-06   0.38897756    0.0202295            0   0.36874806     1.805717    2.1946946    2.2644592 
 2210000    1.0816719 4.5800354e-05   0.56946942  0.068865468            0   0.50060395     1.608987    2.1784564    3.7417752 
 2215000      1.10079 0.00017499211    0.5452122  0.025172445            0   0.52003976    1.6374251    2.1826373    8.1557012 
 2220000    1.1322316 -2.2434748e-05   0.46132435  0.013943625            0   0.44738072    1.6841945    2.1455189    1.3797462 
 2225000    1.0635342 -2.7605676e-05   0.56829647  0.025418729            0   0.54287774    1.5820071    2.1503036    1.2080299 
 2230000    1.0756787 6.8586719e-05   0.51936606  0.010970143            0   0.50839592     1.600072    2.1194381    4.4605315 
 2235000    1.0700984  4.13553e-05   0.51299276 0.0036333144            0   0.50935944    1.5917714    2.1047641    3.5163584 
 2240000     1.082253 4.1598644e-05   0.47774787  0.024835199            0   0.45291267    1.6098513    2.0875992    3.5074996 
 2245000    1.0313638 -0.00011806598   0.55790958  0.018538135            0   0.53937145    1.5341536    2.0920632   -1.9379223 
 2250000     1.054605 -7.1409525e-05   0.52212749  0.014448886            0    0.5076786    1.5687249    2.0908524  -0.34659272 
 2255000    1.0472322 5.4999317e-05   0.51247778  0.028725992            0   0.48375179    1.5577579    2.0702357    3.9475457 
 2260000   0.99059255 3.5385165e-05   0.56690032  0.019680235            0   0.54722008    1.4735064    2.0404067    3.2482204 
 2265000    1.0058298 3.4944918e-05   0.53123447  0.018457413            0   0.51277705    1.4961719    2.0274064    3.2201929 
 2270000   0.98588878 -7.9345001e-05   0.56764381   0.04257502            0   0.52506879    1.4665096    2.0341534  -0.67415598 
 2275000    1.0156797 -7.315475e-05   0.49957002  0.016483748            0   0.48308627    1.5108235    2.0103935  -0.48662196 
 2280000    1.0622196 -5.4542769e-05   0.46634041 0.0095846578            0   0.45675575    1.5800517    2.0463921   0.18466562 
 2285000    1.0577638 -2.9243634e-05   0.47294828  0.024800583            0   0.44814769    1.5734237     2.046372    1.0481893 
 2290000    1.0316395 -3.4948612e-05   0.50752656  0.019200481            0   0.48832608    1.5345638    2.0420903   0.84917773 
 2295000    0.9669427 6.9679055e-06    0.6067059  0.015445741            0   0.59126016    1.4383273    2.0450332     2.282871 
 2300000    1.0559785 8.7268494e-05   0.47815515  0.011218343            0   0.46693681    1.5707679    2.0489231    5.0276877 
 2305000    1.0204472 0.00014332923   0.52549205  0.019813072            0   0.50567898    1.5179152    2.0434072    6.9357116 
 2310000    1.0236986 -2.3072798e-05   0.52278534  0.021165744            0    0.5016196    1.5227517    2.0455371    1.2579856 
 2315000     1.005701 2.3649582e-06   0.55043083   0.01816488            0   0.53226595    1.4959803    2.0464111     2.127135 
 2320000    1.0436454 -3.4497705e-05    0.4910847  0.016121263            0   0.47496344    1.5524226    2.0435073   0.86598563 
 2325000    1.0410974 -5.9866885e-05   0.49536304  0.030628535            0   0.46473451    1.5486324    2.0439954 0.00053907453 
 2330000   0.99738006 4.1289687e-05    0.5750204  0.051825549            0   0.52319485    1.4836028    2.0586232    3.4679779 
 2335000   0.98380513 5.8339116e-06   0.60232321  0.042975756            0   0.55934745    1.4634101    2.0657333    2.2648642 
 2340000    1.0104485 -0.00012609801   0.54645503  0.024782999            0   0.52167203    1.5030421    2.0494971   -2.2546482 
 2345000    1.0415071 -0.00023336287   0.50576299  0.021915451            0   0.48384754    1.5492418    2.0550048   -5.9104479 
 2350000    1.0459159 -0.0001177667   0.52563591  0.012021654            0   0.51361425    1.5557999    2.0814359   -1.9383343 
 2355000    1.0717493 6.4273739e-05   0.50959467 0.0072268359            0   0.50236784    1.5942271    2.1038218    4.2976987 
 2360000    1.0840663 1.2044526e-05   0.48973784  0.019817144            0   0.46992069    1.6125486    2.1022864    2.5134062 
 2365000    1.0399609 -7.5278031e-05   0.54377991 0.0025643429            0   0.54121557    1.5469418    2.0907217   -0.4787684 
 2370000    1.1084762 -7.7513027e-05   0.43381256  0.016019098            0   0.41779346    1.6488584    2.0826709  -0.56310706 
 2375000    1.0275027 0.00014395276   0.56939169   0.03304982            0   0.53634187    1.5284103    2.0978019    7.0113896 
 2380000    1.1161152 9.8449745e-05   0.45616297  0.037272027            0   0.41889094    1.6602213    2.1163843    5.4768023 
 2385000    1.0426396 -6.5634934e-05   0.58453594  0.026485096            0   0.55805085    1.5509263    2.1354623   -0.1048768 
 2390000    1.0976155 0.00013363031   0.50968317  0.050207641            0   0.45947553    1.6327031    2.1423863    6.7036341 
 2395000    1.1275661 7.379121e-05   0.47562968  0.010970595            0   0.46465908    1.6772546    2.1528842    4.6716242 
 2400000    1.0746197 -0.00012709662   0.54866758  0.010859853            0   0.53780773    1.5984968    2.1471644   -2.1910668 
 2405000    1.0983496 -3.3182945e-05   0.51714424 0.0079881308            0   0.50915611     1.633795    2.1509392    1.0182947 
 2410000    1.1177243 4.1935267e-05   0.47812314  0.018004677            0   0.46011846    1.6626149     2.140738    3.5721285 
 2415000    1.0522441 -6.2905185e-05   0.57379648  0.029264614            0   0.54453187    1.5652132    2.1390096 -0.0081540073 
 2420000    1.1005263 9.9985728e-05   0.48986877   0.01714462            0   0.47272415    1.6370329    2.1269017    5.5397478 
 2425000    1.0469882 8.9397125e-05   0.56731078  0.015939252            0   0.55137153     1.557395    2.1247057    5.1761276 
 2430000    1.0985597 1.0400941e-05   0.46461454 0.0027402129            0   0.46187433    1.6341075    2.0987221    2.4537408 
 2435000    1.0896869 5.1068811e-07   0.47524308 0.0058437391            0   0.46939934    1.6209093    2.0961524    2.1135839 
 2440000    1.0773549 -0.00017176822    0.4730864 0.0069351506            0   0.46615125    1.6025654    2.0756518   -3.7873701 
 2445000    1.0692038 2.6079967e-05   0.49860394 0.0071398608            0   0.49146408    1.5904407    2.0890446    2.9792408 
 2450000      1.08114 -5.9374742e-05   0.47350298 0.0041143834            0   0.46938859    1.6081957    2.0816987  0.055040869 
 2455000    1.0984868 6.090967e-05   0.45103002   0.01507071            0   0.43595931    1.6339991    2.0850291    4.1640792 
 2460000    1.0642179 -1.3790683e-05   0.49646709  0.035887381            0   0.46057971    1.5830241    2.0794912    1.6087692 
 2465000   0.98936159 4.1694795e-05   0.58432954  0.033262131            0   0.55106741    1.4716754    2.0560049    3.4791872 
 2470000     1.055141 -6.2403956e-05   0.50233112  0.010134567            0   0.49219656    1.5695222    2.0718533 -0.058201731 
 2475000    1.0885489 -1.5943211e-05   0.46395541 0.0010771252            0   0.46287829    1.6192165    2.0831719     1.538977 
 2480000    1.1050843 -0.00015800762   0.42471816 0.0019102864            0   0.42280787    1.6438128     2.068531   -3.3247958 
 2485000    1.0871514 7.0106206e-06    0.4425296  0.011061795            0    0.4314678    1.6171377    2.0596673    2.2989632 
 2490000    1.0364481 0.00012302121   0.52974931  0.030934849            0   0.49881446    1.5417166    2.0714659    6.2705898 
 2495000    1.0738305 0.00014292997   0.48342294  0.026069574            0   0.45735337    1.5973229    2.0807458     6.959422 
 2500000    1.1151695 -3.8598555e-05   0.43370513  0.012268551            0   0.42143658    1.6588147    2.0925198    0.7750225 
 2505000    1.0477748 3.0940427e-05   0.53819625  0.012103329            0   0.52609293    1.5585651    2.0967613    3.1528612 
 2510000      1.06904 -9.6213459e-05   0.52890196  0.034790453            0    0.4941115     1.590197     2.119099   -1.1649871 
 2515000    1.0634776 -2.7447415e-06   0.54246263  0.093504706            0   0.44895792    1.5819229    2.1243856    2.0306984 
 2520000    1.0852989 -6.3275535e-05   0.54709726  0.022397456            0   0.52469981    1.6143821    2.1614793 0.0016743913 
 2525000    1.0957423 0.00013364065   0.50942397  0.029021028            0   0.48040294    1.6299166    2.1393406    6.7009413 
 2530000    1.1031598 1.4560436e-05   0.49628984  0.018942637            0    0.4773472    1.6409502      2.13724    2.6342362 
 2535000    1.1122109 6.4599627e-05   0.45929439  0.035683821            0   0.42361057    1.6544137    2.1137081    4.3187087 
 2540000    1.0499479 -0.00028735722   0.56206892  0.031024764            0   0.53104415    1.5617975    2.1238664   -7.6845933 
 2545000    1.0652718 -0.00017649058   0.53624751  0.019565225            0   0.51668228    1.5845918    2.1208393   -3.9033723 
 2550000     1.100152 4.4433204e-05   0.50350836  0.022357266            0    0.4811511    1.6364761    2.1399845    3.6566379 
 2555000    1.0632199 7.2876354e-05   0.57000409  0.033504123            0   0.53649997    1.5815397    2.1515438    4.6390566 
 2560000    1.1411468 4.5939984e-05   0.44537952  0.039996986            0   0.40538253    1.6974558    2.1428353    3.7109201 
 2565000    1.0566473 4.2916526e-05   0.56102905  0.024901128            0   0.53612792    1.5717628    2.1327918    3.5976759 
 2570000    1.0922715 3.8542287e-05   0.51169888  0.015127618            0   0.49657127    1.6247538    2.1364527    3.4520294 
 2575000    1.1231758 2.0719392e-05   0.47536363  0.050127228            0    0.4252364    1.6707239    2.1460876    2.8533095 
 2580000    1.1293438 4.365707e-05   0.48540731  0.036398737            0   0.44900858     1.679899    2.1653063    3.6554676 
 2585000    1.0917275 -7.0530087e-05    0.5189752 0.0042304546            0   0.51474475    1.6239446    2.1429198  -0.26450715 
 2590000     1.135033 -4.0062446e-05   0.44975477 0.0088915553            0   0.44086322    1.6883616    2.1381164   0.77065156 
 2595000    1.1472896  4.13757e-05   0.41725167  0.016638854            0   0.40061281    1.7065933    2.1238449    3.5361355 
 2600000    1.1157684 -0.00013727422   0.48926535  0.023350411            0   0.46591494    1.6597055    2.1489708   -2.5366559 
 2605000    1.0934525 -8.9262648e-05   0.52869402  0.038708403            0   0.48998562    1.6265105    2.1552046  -0.89162713 
 2610000    1.1018009 -0.00011083897   0.48856667  0.016907843            0   0.47165883    1.6389289    2.1274956   -1.6558081 
 2615000    1.0835989 4.2583969e-05   0.49600572 0.0073211498            0   0.48868457    1.6118534    2.1078591    3.5613919 
 2620000    1.1258184 0.00016110687   0.43253331  0.018672748            0   0.41386057    1.6746549    2.1071883    7.6063029 
 2625000    1.0886313 -4.7492703e-05   0.50494403  0.016012896            0   0.48893113     1.619339    2.1242831   0.50319879 
 2630000    1.0974036 6.0541817e-05   0.49833215  0.052503081            0   0.44582907    1.6323879    2.1307201    4.1972141 
 2635000    1.1615288 -0.00013190728   0.41799817  0.027281665            0    0.3907165    1.7277741    2.1457723   -2.3566629 
 2640000    1.1116984 -7.3663754e-05   0.48749682  0.030624515            0    0.4568723    1.6536514    2.1411482  -0.37324127 
 2645000    1.1050654 -6.0026397e-05    0.4983803  0.039051217            0   0.45932908    1.6437848    2.1421651  0.093264119 
 2650000    1.1362018 0.00014846479   0.43139179  0.020630189            0    0.4107616    1.6901002     2.121492      7.18909 
 2655000    1.1069762 0.00017832745    0.4488957 0.0048860944            0   0.44400961     1.646627    2.0955227     8.182433 
 2660000    1.1081513 -5.59374e-05   0.42347963 0.0045142276            0    0.4189654     1.648375    2.0718546   0.16252472 
 2665000    1.0206033 -7.4699537e-05    0.5331568   0.01424578            0   0.51891102    1.5181475    2.0513043  -0.49843996 
 2670000    1.0440352 -3.763289e-06   0.51919329  0.020527839            0   0.49866545    1.5530023    2.0721956     1.943742 
 2675000    1.1330009 6.235818e-05   0.37075466 0.0086540363            0   0.36210062    1.6853389    2.0560936    4.1845861 
 2680000    1.0482459 4.8714457e-05   0.47893276 0.0054294417            0   0.47350332    1.5592657    2.0381985    3.7009853 
 2685000    1.0370234 6.6198851e-05   0.49907822 0.0081633704            0   0.49091485    1.5425724    2.0416506     4.301238 
 2690000     1.038922 6.4275492e-05   0.48221269  0.013054023            0   0.46915867    1.5453965    2.0276091     4.221546 
 2695000    1.0349294 -0.00020229922   0.48514613  0.039463497            0   0.44568263    1.5394575    2.0246036   -4.8805431 
 2700000    1.0688942 -5.4564708e-05   0.44338802  0.021119478            0   0.42226854    1.5899802    2.0333682   0.17089283 
 2705000    1.0616674 -5.3257243e-05   0.46234936 0.0021273484            0   0.46022201    1.5792303    2.0415797   0.22373246 
 2710000    1.1029307 -3.0199748e-05   0.39056006  0.009212088            0   0.38134797    1.6406094    2.0311695    1.0003514 
 2715000    1.0715417 0.00021484551   0.44473872  0.018966948            0   0.42577177    1.5939183     2.038657    9.3720504 
 2720000    1.0528846 3.6566595e-05   0.44468779  0.010615561            0   0.43407223    1.5661658    2.0108536    3.2589934 
 2725000   0.96503608 -1.9510853e-06   0.55152101 0.0064403079            0   0.54508071    1.4354912    1.9870122    1.9204151 
 2730000   0.96406721 -0.00012702677   0.52428659  0.010271262            0   0.51401533      1.43405    1.9583366   -2.3775106 
 2735000    1.0079105 -0.0002234372   0.44902927  0.018337394            0   0.43069188    1.4992668    1.9482961   -5.6783603 
 2740000    1.0009247 2.1618023e-06   0.44964413  0.026388602            0   0.42325552    1.4888755    1.9385196    2.0123091 
 2745000    1.0442759 0.00013111593   0.43039182  0.034234029            0   0.39615779    1.5533604    1.9837522     6.459176 
 2750000   0.97601765 3.5299004e-05   0.52585994  0.029827493            0   0.49603245    1.4518263    1.9776862    3.1825589 
 2755000   0.98494903 1.3442306e-05   0.48252138  0.017365355            0   0.46515603    1.4651117    1.9476331    2.4064638 
 2760000    1.0672351 0.00011079778   0.36272805  0.017049649            0    0.3456784    1.5875122    1.9502402    5.7321377 
 2765000    1.0311268 -2.8077195e-05   0.42661038 0.0046089556            0   0.42200142    1.5338011    1.9604114    1.0020432 
 2770000    1.0207596 -0.00016046548   0.43504032 0.0046093797            0   0.43043094    1.5183799    1.9534203   -3.5238013 
 2775000    1.0281328 1.3292116e-05   0.42179219 0.0075431477            0   0.41424904    1.5293476    1.9511398     2.404844 
 2780000   0.99940938 3.2740606e-05   0.46395236 0.0031038813            0   0.46084847    1.4866214    1.9505738    3.0681198 
 2785000   0.99852321 -6.1340683e-05   0.44951211 0.0018090244            0   0.44770308    1.4853033    1.9348154  -0.15894661 
 2790000    0.9812352 0.00010048799   0.48201662 0.0041913827            0   0.47782524    1.4595874     1.941604     5.371594 
 2795000   0.98736722 -4.7107265e-05   0.47138136   0.01916564            0   0.45221572    1.4687087    1.9400901   0.33216213 
 2800000   0.93509138 -0.00016401354    0.5389892  0.025960254            0   0.51302895    1.3909484    1.9299376   -3.6683912 
 2805000    1.0037811 -0.0001075072   0.41663822 0.0078237865            0   0.40881444    1.4931244    1.9097626   -1.7598165 
 2810000   0.95877986 -2.8983481e-05   0.51146158 0.0060270581            0   0.50543452     1.426185    1.9376466   0.94834381 
 2815000   0.99553974 7.7585126e-05   0.45996572   0.01433794            0   0.44562778    1.4808654    1.9408311      4.58907 
 2820000    1.0191454 8.9684344e-06   0.41608987  0.035235515            0   0.38085435    1.5159788    1.9320687    2.2381912 
 2825000   0.98408183 -0.00020303883   0.44060018  0.012423498            0   0.42817668    1.4638217    1.9044219   -5.0259702 
 2830000   0.98856115 -7.4894168e-05    0.4381324  0.014508299            0    0.4236241    1.4704847    1.9086171   -0.6477705 
 2835000    1.0087815 6.9880887e-05   0.40756274  0.013162007            0   0.39440073    1.5005625    1.9081253    4.2933929 
 2840000    0.9346051 -7.2137788e-05   0.52343988  0.019881587            0   0.50355829    1.3902251     1.913665  -0.54863819 
 2845000   0.99334791 8.2298513e-05   0.44238201  0.016240922            0   0.42614109     1.477605     1.919987    4.7291096 
 2850000   0.98132033 -5.4578793e-05     0.434123 0.0058049719            0   0.42831803     1.459714     1.893837  0.030880859 
 2855000   0.99968863 -0.00018883084   0.40426674 0.0042463873            0   0.40002036    1.4870368    1.8913036   -4.5541223 
 2860000   0.99627089 -3.0879948e-05   0.41910175  0.017337334            0   0.40176441     1.481953    1.9010547   0.84701914 
 2865000   0.95035782 -0.00013726534   0.49248355  0.044138358            0   0.44834519    1.4136573    1.9061408   -2.7791828 
 2870000   0.98864669 -7.2866925e-07   0.44114767  0.050445838            0   0.39070183    1.4706119    1.9117596    1.8868877 
 2875000   0.98255021 0.00022760925   0.42810408  0.019066011            0   0.40903807    1.4615434    1.8896475      9.65871 
 2880000   0.96814787 -3.4276873e-05   0.45619283  0.016671393            0   0.43952143      1.44012    1.8963128   0.72632883 
 2885000   0.99690413 -0.00016358437    0.4125313  0.018013578            0   0.39451772    1.4828949    1.8954262   -3.6882535 
 2890000   0.98488462 7.9426383e-05   0.44058842 0.0081167948            0   0.43247162    1.4650159    1.9056043    4.6166915 
 2895000    0.9735961 -6.0272575e-05   0.42205251  0.018472781            0   0.40357973    1.4482242    1.8702767   -0.1870272 
 2900000    0.9743533 -7.4892031e-05   0.41812661  0.023056093            0   0.39507052    1.4493505    1.8674771  -0.68883749 
 2905000   0.93449415 5.7592594e-05   0.48901308  0.027255607            0   0.46175747      1.39006    1.8790731    3.8449003 
 2910000   0.97938863 9.7080092e-05   0.42209934  0.018358064            0   0.40374127    1.4568406    1.8789399    5.1926071 
 2915000   0.99738122 -7.1489585e-06   0.42465395 0.0057664527            0    0.4188875    1.4836046    1.9082585    1.6642407 
 2920000   0.97670981 -9.3199574e-05   0.47508982  0.015109242            0   0.45998058    1.4528558    1.9279457   -1.2532665 
 2925000   0.98397715 0.0001004638   0.43774478  0.017637446            0   0.42010733     1.463666    1.9014108    5.3305753 
 2930000   0.92775374 0.0001705252   0.50407577   0.02638597            0    0.4776898    1.3800337    1.8841095    7.7047029 
 2935000    1.0422744 0.00010980755   0.34347876 0.0065503118            0   0.33692845    1.5503832    1.8938619    5.6419596 
 2940000    1.0077515 7.5574973e-06   0.38785846  0.010124733            0   0.37773372    1.4990303    1.8868888    2.1448514 
 2945000    1.0079044 -0.00016953297   0.40243815  0.023753112            0   0.37868504    1.4992579     1.901696   -3.8850295 
 2950000   0.96234763 -0.00016872357   0.47405091  0.008581409            0    0.4654695    1.4314921     1.905543   -3.8535549 
 2955000   0.99235263 -1.6054376e-05   0.41728113  0.003895726            0   0.41338541    1.4761245    1.8934057    1.3454163 
 2960000    1.0053867 9.0339692e-05   0.38211256 0.0073649353            0   0.37474762    1.4955127    1.8776252      4.96122 
 2965000   0.96176438 6.0404365e-05   0.44572969 0.0045410979            0   0.44118859    1.4306245    1.8763542    3.9381565 
 2970000   0.94179061 -5.4024996e-05    0.4946654 0.0056835554            0   0.48898184    1.4009135    1.8955789  0.051525739 
 2975000    1.0557601 6.4125677e-05   0.36055922  0.021376138            0   0.33918308    1.5704431    1.9310023    4.1198254 
 2980000     1.053395 3.7364649e-05   0.37833526     0.019875            0   0.35846026    1.5669251    1.9452604    3.2206404 
 2985000   0.95920323 5.1672819e-05   0.50401938  0.046188644            0   0.45783074    1.4268148    1.9308342    3.6945997 
 2990000   0.91568761 1.0511735e-05   0.55638861  0.047147647            0   0.50924096    1.3620853    1.9184739    2.2772745 
 2995000    0.9993666 -0.00014709077   0.41724543  0.030404777            0   0.38684066    1.4865578    1.9038033   -3.1168949 
 3000000   0.99091063 -4.7749501e-05   0.40935998  0.024999986            0      0.38436    1.4739796    1.8833395   0.25348989 
 3005000    0.8916942 -5.0389856e-05   0.54740935  0.025731495            0   0.52167786    1.3263951    1.8738045   0.15383075 
 3010000    0.9189023 -1.1272515e-06   0.49325519  0.019396499            0   0.47385869    1.3668672    1.8601224    1.8216455 
 3015000   0.99113547 -2.909714e-05   0.39394278 0.0085885688            0   0.38535421     1.474314    1.8682568   0.87507441 
 3020000   0.94630104 -6.1860522e-05   0.47199695  0.021677706            0   0.45031924    1.4076228    1.8796197  -0.23188608 
 3025000   0.93459434 -1.9765677e-05   0.50171193  0.022575399            0   0.47913653    1.3902091     1.891921    1.2172526 
 3030000   0.95240635 2.0146786e-06   0.44784472  0.024031472            0   0.42381325    1.4167044    1.8645492    1.9333169 
 3035000   0.97410339 -4.5556438e-05   0.41268221  0.016892192            0   0.39579001    1.4489788     1.861661   0.30666792 
 3040000    0.9535931 -1.2480055e-05   0.45691372  0.015347109            0   0.44156661    1.4184697    1.8753835    1.4493976 
 3045000   0.95358519 -1.1567313e-05   0.47471167  0.010368142            0   0.46434353     1.418458    1.8931696    1.4983387 
 3050000   0.94548491 -8.8461468e-05    0.4819744 0.0080098973            0   0.47396451    1.4064088    1.8883832   -1.1311016 
 3055000    1.0219965 5.1838134e-05   0.37478591 0.0019855938            0   0.37280032    1.5202198    1.8950057     3.664414 
 3060000   0.96381517 7.4407579e-05   0.46134758  0.011553067            0   0.44979452    1.4336751    1.8950226    4.4348013 
 3065000   0.93747174 -1.3451112e-05   0.50698044  0.032850816            0   0.47412963    1.3944892    1.9014697    1.4423384 
 3070000     0.971297 -5.2140467e-05   0.47387682  0.012961588            0   0.46091523    1.4448043    1.9186811   0.13895316 
 3075000    1.0255931 5.8520561e-06   0.39440494 0.0013742474            0    0.3930307    1.5255697    1.9199746    2.1197248 
 3080000    0.9973915 -3.1261442e-05   0.44423098 0.0059212423            0   0.43830974    1.4836199    1.9278508   0.86079361 
 3085000    0.9659724 -7.8564123e-05   0.48456417  0.013699208            0   0.47086496    1.4368839    1.9214481   -0.7602073 
 3090000    1.0437849 -7.1414771e-05   0.37599313  0.023883288            0   0.35210985      1.55263    1.9286232  -0.50900102 
 3095000   0.96258991 -7.5079565e-05   0.50374384  0.017998321            0   0.48574552    1.4318525    1.9355963  -0.62711949 
 3100000   0.98271474 -5.4772669e-05   0.48001453 0.0068176647            0   0.47319686    1.4617882    1.9418027   0.07222893 
 3105000   0.98498126 -8.3070962e-05   0.47581986   0.00857031            0   0.46724955    1.4651596    1.9409795  -0.89450936 
 3110000    1.0462651 -2.3748867e-06   0.38280874  0.022657755            0   0.36015099    1.5563193     1.939128    1.8580652 
 3115000     1.019613 3.9199433e-05   0.42538254  0.041353321            0   0.38402922    1.5166743    1.9420568    3.2800641 
 3120000   0.96411993 2.8009832e-05   0.50064023  0.027574489            0   0.47306574    1.4341284    1.9347686    2.8908376 
 3125000   0.98321199 2.3707803e-05   0.49804772  0.028854029            0   0.46919369    1.4625278    1.9605756    2.7698019 
 3130000    1.0590131 1.8915399e-05   0.39588003  0.010773015            0   0.38510702     1.575282    1.9711621    2.6168077 
 3135000    1.0544187 7.4311357e-05   0.41369173 0.0095022125            0   0.40418952    1.5684478    1.9821395    4.5186338 
 3140000    1.0673021 5.6772443e-05   0.38851169 0.0072543501            0   0.38125734    1.5876119    1.9761235    3.9139563 
 3145000    1.0169262 -4.486597e-05    0.4614472  0.010452128            0   0.45099507    1.5126777    1.9741249   0.44269982 
 3150000   0.95794978 -4.0245935e-05   0.53683467 0.0038888053            0   0.53294586    1.4249503     1.961785   0.58805705 
 3155000   0.92202999 9.8989718e-05   0.55776542  0.008418607            0   0.54934681    1.3715196     1.929285    5.3081341 
 3160000    1.0169054 0.00011016747   0.41698405  0.012802381            0   0.40418167    1.5126468    1.9296308    5.6900139 
 3165000   0.92004892 -7.2632034e-05   0.56520965  0.038979507            0   0.52623014    1.3685728    1.9337824  -0.54539103 
 3170000   0.97405953 -5.5363095e-05   0.48241372 0.0094453574            0   0.47296837    1.4489135    1.9313273  0.041600297 
 3175000   0.97826752 9.6863201e-05    0.5005205  0.015564803            0    0.4849557    1.4551729    1.9556934    5.2619574 
 3180000   0.99366117 0.00010741413   0.46986838  0.017122648            0   0.45274573     1.478071    1.9479394    5.6143416 
 3185000    1.0169182 1.0700788e-05    0.4530833  0.012214385            0   0.44086892    1.5126658    1.9657491    2.3310027 
 3190000    1.0316274 -0.00014110842   0.43842297  0.021313038            0   0.41710993    1.5345457    1.9729687   -2.8435321 
 3195000   0.95078775 6.972175e-07    0.5274728  0.028918712            0   0.49855409    1.4142968    1.9417696    1.9655679 
 3200000   0.99626015 7.7302614e-05   0.46121606    0.0185962            0   0.44261986     1.481937     1.943153    4.5817489 
 3205000   0.99110427 1.2615386e-05   0.46030525 0.0071352615            0   0.45316999    1.4742676    1.9345729     2.365178 
 3210000   0.92798499 -6.2962906e-05   0.54170048 0.0081007627            0   0.53359972    1.3803777    1.9220781  -0.22705572 
 3215000   0.99990184 2.7959817e-05   0.42964834  0.027468711            0   0.40217963     1.487354    1.9170023    2.8713641 
 3220000    1.0139496 -5.7093285e-05   0.41058522  0.012606662            0   0.39797856      1.50825    1.9188353 -0.029948877 
 3225000   0.99787201 -0.00012024707   0.42676999  0.012338568            0   0.41443142    1.4843346    1.9111046   -2.1933287 
 3230000   0.98118626 1.4342243e-05    0.4426198  0.025996087            0   0.41662371    1.4595146    1.9021344    2.3916829 
 3235000   0.95898841 8.5286805e-06   0.45217624  0.018203194            0   0.43397304    1.4264953    1.8786715    2.1697838 
 3240000   0.97432741 3.1417575e-05   0.42726377 0.0038305832            0   0.42343318     1.449312    1.8765758    2.9489623 
 3245000   0.92589335 3.5563954e-05   0.52779539  0.032859178            0   0.49493621    1.3772664    1.9050617     3.118978 
 3250000   0.92313761 6.6545958e-05   0.51688669  0.044302986            0   0.47258371    1.3731672    1.8900539    4.1614893 
 3255000   0.98548121 1.6273468e-05   0.41433088  0.014332613            0   0.39999827    1.4659033    1.8802342    2.4357019 
 3260000    1.0128042 -0.00015454259   0.38347909  0.015281489            0   0.36819761    1.5065462    1.8900253   -3.3850283 
 3265000   0.95968432 -5.7721561e-05    0.4666109   0.02400988            0   0.44260102    1.4275304    1.8941413 -0.076087967 
 3270000   0.97927849 -4.504158e-05   0.42721839 0.0097463757            0   0.41747201    1.4566768    1.8838951   0.34647586 
 3275000   0.94274262 -1.0519484e-05    0.4552705  0.026352623            0   0.42891788    1.4023297    1.8576002    1.4985351 
 3280000   0.93696022 0.00010715881   0.49728253  0.056571887            0   0.44071064    1.3937283    1.8910109    5.5486983 
 3285000   0.94739963 -7.7486801e-05   0.50608817  0.034384437            0   0.47170373     1.409257    1.9153451  -0.72953769 
 3290000    1.0036372 -0.00010405831   0.42909594  0.020363074            0   0.40873287    1.4929103    1.9220062   -1.6298508 
 3295000   0.97518317 9.7328844e-05   0.48970426  0.037222657            0    0.4524816     1.450585    1.9402892    5.2624471 
 3300000   0.97130973 -2.698983e-05   0.47987229  0.027211015            0   0.45266127    1.4448232    1.9246955    1.0034426 
 3305000   0.98359801 -6.1840224e-05   0.48947351  0.010207159            0   0.47926635     1.463102    1.9525756  -0.15823744 
 3310000    0.9885755 -3.8761559e-05   0.48045817   0.01368999            0   0.46676818     1.470506    1.9509642   0.62790301 
 3315000   0.97731688 -1.613535e-06   0.50653198  0.016537536            0   0.48999445    1.4537589    1.9602908    1.9052155 
 3320000    1.0552722 0.00011827197    0.3933994   0.01131222            0   0.38208718    1.5697174    1.9631168    6.0001333 
 3325000    1.0295214 4.5109228e-05   0.38833253  0.012143481            0   0.37618905    1.5314131    1.9197456    3.4594739 
 3330000   0.97150369 -0.00010962892   0.47485277  0.032080254            0   0.44277252    1.4451117    1.9199645   -1.8220359 
 3335000   0.95941548 -1.4712097e-05   0.48495293  0.018340916            0   0.46661202    1.4271305    1.9120835    1.4099105 
 3340000   0.94100701 8.4167584e-05   0.50466724 0.0043997782            0   0.50026746    1.3997479    1.9044152    4.7773354 
 3345000    1.0124382 4.9078416e-05   0.40483806 0.0053270684            0   0.39951099    1.5060018    1.9108399    3.5860498 
 3350000   0.98663239 -7.6766716e-05   0.47581307  0.019618664            0    0.4561944    1.4676157    1.9434287  -0.67687517 
 3355000   0.97773946 -7.3999947e-05   0.48738852 0.0066455767            0   0.48074294    1.4543874     1.941776  -0.58408889 
 3360000    1.0393779 -3.2771334e-06   0.39428916 0.0099689485            0   0.38432021    1.5460747    1.9403638    1.8285043 
 3365000    1.0077529 2.2439585e-05   0.43088024  0.056541736            0    0.3743385    1.4990325    1.9299127    2.6958505 
 3370000   0.96738599 -3.5584864e-05   0.49359935   0.03228048            0   0.46131887    1.4389867     1.932586   0.71795597 
 3375000   0.98404953 -1.1478089e-05   0.47151633  0.023936278            0   0.44758006    1.4637737      1.93529    1.5435046 
 3380000   0.98788745 -5.7405819e-05   0.47127318  0.010240621            0   0.46103256    1.4694826    1.9407558 -0.018696191 
 3385000   0.99097344 -2.8734715e-05   0.46846195  0.010010083            0   0.45845187     1.474073    1.9425349   0.96172333 
 3390000   0.97245849 7.2747127e-05    0.4986262  0.019738441            0   0.47888776     1.446532    1.9451582    4.4282601 
 3395000   0.98430165 1.2759393e-05   0.49013824  0.026195637            0   0.46394261    1.4641487     1.954287    2.3898076 
 3400000    1.0364679 -9.0967804e-05   0.40054997  0.014709705            0   0.38584026     1.541746    1.9422959   -1.1627384 
 3405000     1.005176 -5.9634994e-05   0.46196659  0.011850042            0   0.45011655    1.4951992    1.9571658 -0.078375295 
 3410000   0.95964556 9.4781786e-06     0.492766  0.029414931            0   0.46335107    1.4274728    1.9202388    2.2437606 
 3415000    1.0543266 2.1837917e-05   0.36493275  0.013869621            0   0.35106313    1.5683109    1.9332436    2.6786445 
 3420000    0.9660617 1.6032293e-05   0.47688045 0.0060186189            0   0.47086183    1.4370168    1.9138972    2.4611328 
 3425000   0.99676328 3.2614732e-05   0.41198318 0.0019517929            0   0.41003139    1.4826854    1.8946686    3.0079181 
 3430000    1.0156782 -8.2621778e-07   0.40336485 0.0013470115            0   0.40201784    1.5108213    1.9141861    1.8859846 
 3435000   0.96331063 4.1725682e-05   0.48366416 0.0060864736            0   0.47757769    1.4329246    1.9165887    3.3408253 
 3440000   0.96349936 -2.254306e-05   0.43710897 0.0039915703            0    0.4331174    1.4332053    1.8703143    1.1008445 
 3445000   0.95692875 -0.00014024961   0.45435672 0.0046579682            0   0.44969875    1.4234315    1.8777882   -2.9093985 
 3450000   0.94562624 2.6625158e-05   0.46370788 0.0098453184            0   0.45386257     1.406619    1.8703269    2.7791323 
 3455000   0.94119799 0.00021291171   0.44293594  0.014629006            0   0.42830694     1.400032    1.8429679    9.1103542 
 3460000   0.87712172 5.0446359e-05   0.51008689  0.018024931            0   0.49206196    1.3047186    1.8148054    3.5367078 
 3465000   0.88729072 -6.3323709e-05   0.51737408  0.019048227            0   0.49832586    1.3198449     1.837219  -0.32423024 
 3470000    0.8927215 2.6215898e-05   0.53342955  0.047940709            0   0.48548884    1.3279232    1.8613528    2.7561888 
 3475000   0.95740342 6.3806572e-05   0.42738613  0.019839147            0   0.40754698    1.4241376    1.8515237    4.0294547 
 3480000   0.92197661 -4.2502541e-05   0.48303457 0.0072419451            0   0.47579262    1.3714402    1.8544748   0.40372137 
 3485000   0.95530039 -2.7829592e-05   0.43620362 0.0092363741            0   0.42696725    1.4210093    1.8572129    0.9072962 
 3490000   0.92984814 5.3256748e-05   0.48797098 0.0092208822            0    0.4787501    1.3831491    1.8711201    3.6889504 
 3495000   0.93896912 2.0382039e-05   0.50856132  0.006457868            0   0.50210345    1.3967166    1.9052779    2.6009848 
 3500000   0.97917711 6.2563089e-05   0.45865887 0.0027581957            0   0.45590067     1.456526    1.9151848    4.0506716 
 3505000   0.97270232 6.1744613e-07   0.42934074 0.0019098408            0    0.4274309    1.4468947    1.8762354    1.8973109 
 3510000   0.94357566 -9.1107584e-07   0.48195175 0.0060230081            0   0.47592875    1.4035688    1.8855205    1.8544225 
 3515000   0.91373357 6.8172239e-05   0.50757157  0.012110084            0   0.49546149    1.3591787    1.8667503     4.193696 
 3520000   0.86439601 -4.6072828e-05   0.59070569  0.036510716            0   0.55419497    1.2857891    1.8764948   0.30387557 
 3525000   0.96735189 -4.4098646e-05    0.4462214  0.018882082            0   0.42733931    1.4389359    1.8851573   0.37992355 
 3530000    0.9275991 7.9087204e-05   0.47425968  0.016163435            0   0.45809624    1.3798037    1.8540633    4.5535732 
 3535000   0.94281452 6.5867799e-05   0.46091893  0.012005393            0   0.44891354    1.4024366    1.8633555    4.1116431 
 3540000   0.95257908 2.0574316e-05   0.43921387 0.0061790774            0   0.43303479    1.4169614    1.8561753    2.5584452 
 3545000   0.92042725 6.0266959e-06   0.48254875 0.0053820147            0   0.47716674    1.3691355    1.8516843    2.0573955 
 3550000   0.85482248 1.2115386e-05   0.58647119  0.016099763            0   0.57037142    1.2715484    1.8580196    2.2715582 
 3555000   0.86516919 7.5146682e-05   0.57483619  0.024101879            0   0.55073431    1.2869392    1.8617754    4.4267821 
 3560000   0.91056841 0.00015250029   0.52029449   0.02208296            0   0.49821153    1.3544705     1.874765    7.0801082 
 3565000   0.97255707 9.0192757e-05   0.43213001  0.026708109            0   0.40542191    1.4466786    1.8788087    4.9573881 
 3570000    0.9093597 -4.8905949e-05   0.53604455  0.027449981            0   0.50859457    1.3526725    1.8887171   0.21939403 
 3575000   0.94640794 -9.3000785e-05   0.48510239  0.032380112            0   0.45272228    1.4077818    1.8928842   -1.2815426 
 3580000   0.97070374 4.4901997e-05   0.46328835  0.027299098            0   0.43598925    1.4439218    1.9072102     3.439865 
 3585000   0.96557321 8.4607835e-05   0.48931472  0.010122066            0   0.47919266    1.4362902    1.9256049    4.8135523 
 3590000    0.9493187 8.032241e-05   0.53142769  0.006353522            0   0.52507417    1.4121116    1.9435393    4.6852108 
 3595000   0.95432438 -3.0834387e-05   0.51342184  0.022908708            0   0.49051313    1.4195575    1.9329794   0.88049897 
 3600000   0.94481429 -0.00011661611    0.5150927  0.020665023            0   0.49442768    1.4054113     1.920504   -2.0599927 
 3605000   0.98436683 -2.4696159e-05   0.46178843  0.021386525            0   0.44040191    1.4642457    1.9260341    1.0830719 
 3610000    0.9129978 2.051435e-05   0.57728811  0.034162884            0   0.54312522    1.3580842    1.9353723    2.6355955 
 3615000   0.98393819 -0.00013004223   0.48310188  0.018669333            0   0.46443255    1.4636081    1.9467099   -2.4920649 
 3620000    1.0001313 -0.00020062918   0.47583889 0.0099667416            0   0.46587215    1.4876952    1.9635341   -4.8846087 
 3625000   0.93005735 2.5433177e-05   0.56906782  0.029406832            0   0.53966099    1.3834603    1.9525281    2.8206472 
 3630000   0.97998579 0.0001360949   0.50369754  0.024854578            0   0.47884296    1.4577289    1.9614264     6.606799 
 3635000    1.0235258 5.1599934e-05   0.44073645  0.025338412            0   0.41539803    1.5224946     1.963231    3.7245088 
 3640000    1.0272907 -6.3278761e-07   0.43944053  0.014057262            0   0.42538327    1.5280949    1.9675354    1.9459363 
 3645000   0.96593286 -4.7423119e-05   0.53055309  0.016073934            0   0.51447916    1.4368251    1.9673782   0.34866909 
 3650000   0.97959242 7.8262381e-06   0.50149117  0.054989273            0   0.44650189    1.4571437    1.9586349    2.2257705 
 3655000   0.96308465 9.0776459e-05   0.52450866  0.028480985            0   0.49602767    1.4325884    1.9570971    5.0556002 
 3660000    1.0607475 -2.8333699e-05   0.41102253  0.014663599            0   0.39635893    1.5778619    1.9888844    1.0217608 
 3665000   0.99664436 -0.00013699592    0.5108943  0.016433482            0   0.49446082    1.4825085    1.9934028   -2.6827245 
 3670000   0.92994008 -0.00012758289   0.59937677  0.020172723            0   0.57920404    1.3832859    1.9826626   -2.3721667 
 3675000    1.0673039 1.7844096e-05   0.39198009  0.022759058            0   0.36922103    1.5876145    1.9795946    2.5886731 
 3680000   0.94430824 0.00011863817   0.54273376  0.017235553            0   0.52549821    1.4046585    1.9473923    5.9969086 
 3685000   0.92898305 9.7228249e-05   0.54737487  0.021440343            0   0.52593453    1.3818623    1.9292372    5.2479614 
 3690000    1.0090217 0.00015146663   0.44466668  0.018880789            0   0.42578589    1.5009198    1.9455864    7.1156475 
 3695000   0.96594854 0.00013698635   0.52060038  0.015936456            0   0.50466392    1.4368485    1.9574488    6.6332497 
 3700000   0.97354256 1.9554845e-05   0.51769061 0.0084824165            0    0.5092082    1.4481446    1.9658352    2.6333072 
 3705000   0.97568641 -2.3025504e-05   0.49001311  0.031599236            0   0.45841387    1.4513335    1.9413466    1.1554095 
 3710000   0.97046054 0.00010706762   0.50354048  0.015297719            0   0.48824276    1.4435601    1.9471005    5.6016752 
 3715000   0.96113345 -0.0001896379   0.52357227 0.0081706141            0   0.51540166     1.429686    1.9532583   -4.5197154 
 3720000    1.0208116 -6.3422863e-05   0.40654313  0.014143398            0   0.39239974    1.5184573    1.9250004  -0.23983328 
 3725000   0.94205195 0.00010057154   0.55207608 0.0026783939            0   0.54939769    1.4013023    1.9533784    5.3862202 
 3730000   0.98219134 3.765042e-05   0.46769468  0.012695796            0   0.45499888    1.4610096    1.9287043    3.2138386 
 3735000   0.91427567 2.2277289e-05   0.54312411  0.012915963            0   0.53020814    1.3599851    1.9031092    2.6635073 
 3740000   0.97435584 2.2627142e-06   0.42851252  0.010349426            0   0.41816309    1.4493543    1.8778668    1.9551008 
 3745000   0.96471192 6.2466954e-05   0.46201841  0.012268921            0   0.44974949     1.435009    1.8970274    4.0292328 
 3750000   0.93054187 7.5583464e-05   0.54121706  0.011609288            0   0.52960778     1.384181    1.9253981    4.5053136 
 3755000   0.98892486 1.1240696e-05   0.47180858 0.0059218058            0   0.46588678    1.4710257    1.9428343    2.3265167 
 3760000    1.0475031 4.5277357e-06   0.37324934  0.011178407            0   0.36207093    1.5581609    1.9314102    2.0859569 
 3765000   0.86168776 9.3178928e-05   0.64521261  0.012595539            0   0.63261707    1.2817605    1.9269731    5.1074806 
 3770000   0.99661044 0.00013056699   0.46276804  0.016483797            0   0.44628424     1.482458    1.9452261    6.4019128 
 3775000    1.0192664 5.5027881e-05   0.41627195  0.014972256            0   0.40129969    1.5161588    1.9324307    3.8107157 
 3780000   0.98270908 -1.1137674e-05   0.46895117   0.02514519            0   0.44380598    1.4617798    1.9307309     1.550565 
 3785000   0.94042219 2.1703341e-05   0.53635255 0.0065706569            0   0.52978189     1.398878    1.9352306    2.6760379 
 3790000    1.0229505 4.5793399e-05   0.43849505 0.0034817035            0   0.43501335    1.5216389     1.960134    3.5232153 
 3795000   0.94173628 3.2692285e-05   0.54880909  0.024277856            0   0.52453123    1.4008327    1.9496418    3.0655385 
 3800000   0.92784599 -1.737588e-05   0.56739348  0.056708247            0   0.51068523    1.3801709    1.9475644    1.3544677 
 3805000    1.0222123 -4.6564766e-05   0.41502736  0.018087274            0   0.39694009    1.5205409    1.9355682   0.34615752 
 3810000   0.95056398 3.521865e-05   0.50389826  0.003582543            0   0.50031571    1.4139639    1.9178622    3.1199921 
 3815000   0.93699388 1.5147837e-05   0.52494003 0.0011107642            0   0.52382926    1.3937784    1.9187184    2.4357646 
 3820000   0.98518189 -0.00013608933    0.4568414 0.0055931659            0   0.45124823    1.4654581    1.9222995   -2.7228829 
 3825000    1.0486086 -0.00011701671    0.3722096 0.0086310068            0   0.36357859    1.5598053    1.9320149   -2.0621555 
 3830000   0.98317647 -0.00018711427   0.51331275 0.0057466873            0   0.50756607     1.462475    1.9757878   -4.4110459 
 3835000    1.0267908 3.2836573e-06   0.46107443 0.0043505358            0   0.45672389    1.5273513    1.9884257    2.1005079 
 3840000   0.96729451 -0.00012313921    0.5361894  0.010427885            0   0.52576151    1.4388506      1.97504   -2.2281116 
 3845000    1.0100519 -5.2795973e-05   0.48373103  0.023858267            0   0.45987277    1.5024523    1.9861833   0.18408074 
 3850000    1.0107263 -7.1454043e-05   0.49252561  0.010702184            0   0.48182342    1.5034553    1.9959809  -0.44298371 
 3855000    1.0063574 -0.00017342572   0.50455937 0.0059443735            0     0.498615    1.4969566     2.001516   -3.9180818 
 3860000    1.0312433 5.0855179e-05    0.4906304  0.008488262            0   0.48214214    1.5339744    2.0246048    3.7604616 
 3865000    1.0043746 0.00014737634   0.53745509 0.0041428281            0   0.53331226    1.4940072    2.0314623    7.0619079 
 3870000    1.0605438 -1.7425811e-05   0.44154725  0.015954852            0    0.4255924    1.5775589    2.0191062    1.4243052 
 3875000    1.0249289 -6.7429304e-05   0.50973176  0.018424928            0   0.49130683    1.5245818    2.0343135  -0.26727339 
 3880000   0.99270996 -1.3167715e-06   0.56697056  0.020986611            0   0.54598395    1.4766561    2.0436266    1.9986808 
 3885000   0.97406256 8.451732e-05    0.5904119  0.044975445            0   0.54543646    1.4489181      2.03933    4.9241878 
 3890000    1.0543639 7.1797091e-05   0.46924413  0.031441068            0   0.43780306    1.5683662    2.0376104    4.4882844 
 3895000    1.0184758 -6.8256844e-05   0.52426429  0.016784325            0   0.50747996    1.5149828    2.0392471  -0.29058653 
 3900000    1.0367144 3.2051935e-05   0.50495041  0.006750706            0    0.4981997    1.5421127    2.0470631    3.1411025 
 3905000    1.0744973 6.8196953e-05   0.45093282 0.0079814908            0   0.44295133    1.5983147    2.0492475    4.3770369 
 3910000    1.0736642 -5.5496231e-05    0.4734893 0.0083800377            0   0.46510926    1.5970755    2.0705648   0.17629348 
 3915000    1.0321051 -9.6427598e-05   0.53738229  0.014075823            0   0.52330647    1.5352563    2.0726386   -1.2187567 
 3920000    1.0490082 -3.0648391e-05   0.54089267   0.02568902            0   0.51520365    1.5603996    2.1012923    1.0551606 
 3925000    1.1022742 2.2497479e-05   0.45327968  0.013644285            0   0.43963539    1.6396329    2.0929126    2.8608266 
 3930000    1.0186304 8.5187899e-06   0.55853451 0.0095618262            0   0.54897268    1.5152128    2.0737473     2.364522 
 3935000    1.0555813 0.00015344608   0.51384384  0.017272538            0    0.4965713    1.5701772     2.084021    7.3216473 
 3940000    1.0626594 0.00010162032   0.48071215  0.014738869            0   0.46597328    1.5807058    2.0614179    5.5300583 
 3945000    1.0515086 -9.7643483e-05   0.48719975 0.0099095095            0   0.47729024    1.5641191    2.0513188   -1.2815787 
 3950000    1.0310013 -0.0001575479   0.52748649  0.013579547            0   0.51390694    1.5336144    2.0611009   -3.3165341 
 3955000    1.0463409 -5.5950628e-06   0.54475916  0.021426077            0   0.52333309    1.5564322    2.1011913    1.9102132 
 3960000    1.0740519 5.2492261e-05   0.49569751  0.023621231            0   0.47207628    1.5976522    2.0933497    3.8850856 
 3965000    1.0986569 -0.00013103901   0.44998426  0.011334775            0   0.43864948    1.6342522    2.0842364   -2.3885617 
 3970000    1.0343685 -8.4631712e-05   0.54372638 0.0023691268            0   0.54135725    1.5386232    2.0823496  -0.80641286 
 3975000    1.1052702 4.7995876e-05   0.47559082  0.010624963            0   0.46496586    1.6440895    2.1196803    3.7579395 
 3980000    1.1442792 4.0292202e-05   0.42351785  0.028586384            0   0.39493147    1.7021153    2.1256332    3.5009403 
 3985000     1.113742 -1.6607158e-05   0.49096248  0.035195994            0   0.45576648    1.6566912    2.1476536     1.580796 
 3990000    1.0821096 -3.8392565e-05   0.52805109  0.013739254            0   0.51431184    1.6096381    2.1376891   0.82722293 
 3995000    1.0070525 -7.3264235e-06   0.60776941 0.0092070798            0   0.59856233    1.4979905    2.1057599    1.8556847 
 4000000    1.0834374 2.9935631e-05   0.48732872  0.017877107            0   0.46945161    1.6116131    2.0989418    3.1207447 
 4005000    1.1344449 -8.3236337e-05   0.41723369  0.025585573            0   0.39164812    1.6874868    2.1047205  -0.73641313 
 4010000    1.0534042 -1.5915253e-05   0.52947375  0.020261068            0   0.50921268    1.5669387    2.0964124    1.5531718 
 4015000     1.100398 0.00016775795   0.43511649 0.0099161964            0    0.4252003     1.636842    2.0719585    7.7980966 
 4020000    1.0681252 1.9804727e-05   0.48610286  0.019056502            0   0.46704636    1.5888363    2.0749391    2.7509405 
 4025000    1.1126015 8.6061549e-06   0.43153919 0.0061601488            0   0.42537904    1.6549947    2.0865339    2.3802907 
 4030000    1.1011187 -2.3624929e-05   0.43980252   0.01229253            0   0.42750999    1.6379141    2.0777166    1.2713191 
 4035000    1.0504511 1.0703675e-05    0.5068247  0.037300292            0   0.46952441    1.5625459    2.0693706    2.4347228 
 4040000    1.0885798 4.3992281e-05    0.4823763  0.030044127            0   0.45233217    1.6192624    2.1016387    3.6032419 
 4045000    1.0819231 1.5921897e-05   0.49248059   0.01946922            0   0.47301137    1.6093606    2.1018412    2.6453086 
 4050000    1.0748637 6.1580563e-05   0.50507097  0.022353445            0   0.48271753    1.5988597    2.1039307    4.2058805 
 4055000      1.08747 -2.9508014e-05   0.49920437   0.03167038            0   0.46753399    1.6176116     2.116816    1.1096091 
 4060000    1.0820807 1.0474635e-05   0.50189573  0.045897767            0   0.45599797    1.6095951    2.1114908     2.469025 
 4065000    1.0843149 0.00010527635   0.48381317 0.0087957107            0   0.47501746    1.6129184    2.0967315    5.6901643 
 4070000    1.1336667 6.4546979e-05    0.4453184  0.004199626            0   0.44111878    1.6863293    2.1316477    4.3348512 
 4075000    1.0523058 1.7426947e-05   0.55940905  0.011663666            0   0.54774538    1.5653048    2.1247139    2.7195537 
 4080000    1.1531815 9.4674143e-06   0.43550988 0.0088357846            0   0.42667409    1.7153575    2.1508674    2.4740218 
 4085000    1.1381469 -2.8891237e-05   0.45485045 0.0011031325            0   0.45374732    1.6929935    2.1478439    1.1616897 
 4090000    1.0786886 2.5201464e-05   0.53471647  0.014689533            0   0.52002693    1.6045493    2.1392658    2.9994758 
 4095000    1.1082755 -6.8842011e-05   0.48846733  0.050735511            0   0.43773182    1.6485598    2.1370271  -0.21278016 
 4100000    1.0596639 -2.4431472e-05   0.54777403  0.052140238            0   0.49563379      1.57625     2.124024    1.2900965 
 4105000    1.1142402 4.0353231e-05   0.48580117  0.016908282            0   0.46889289    1.6574323    2.1432335    3.5206238 
 4110000    1.1154441 2.0909758e-05   0.47891465  0.049476832            0   0.42943782     1.659223    2.1381377    2.8518574 
 4115000    1.0721336 1.9964844e-05   0.53502162  0.022443292            0   0.51257833    1.5947988    2.1298204    2.8112871 
 4120000    1.0749999 1.3554015e-05   0.52577024  0.016638597            0   0.50913164    1.5990623    2.1248325    2.5874763 
 4125000    1.0578921 -9.919607e-05   0.54458436   0.02094405            0   0.52364031    1.5736145    2.1181988   -1.2676937 
 4130000    1.0887704 -4.4715885e-05   0.49413811  0.015083605            0    0.4790545    1.6195459     2.113684   0.58738183 
 4135000    1.0681876 -0.00011170598   0.50550041  0.004526796            0   0.50097361    1.5889291    2.0944295   -1.7184681 
 4140000    1.1134433 -0.00010538679   0.41412053   0.01458952            0   0.39953101    1.6562469    2.0703675   -1.5268348 
 4145000    1.0797391 0.00015559333    0.4798069  0.021119167            0   0.45868774     1.606112    2.0859189    7.3968379 
 4150000     1.120807 1.0134182e-06   0.40879679  0.012073921            0   0.39672287    1.6672004    2.0759972    2.1105885 
 4155000    1.0020198 -1.1361554e-05   0.56682336  0.019031432            0   0.54779193    1.4905045    2.0573279    1.6695201 
 4160000    1.0724036 6.6256515e-05   0.45593213  0.021266385            0   0.43466574    1.5952003    2.0511324    4.3126882 
 4165000    1.0521785 0.00015178372   0.48631822 0.0050896039            0   0.48122862    1.5651155    2.0514338    7.2323181 
 4170000    1.1079673 3.0463512e-05   0.42264456  0.012802759            0    0.4098418    1.6481014     2.070746    3.1105672 
 4175000    1.0884164 -0.00013206294    0.4378712  0.016512611            0   0.42135859    1.6190194    2.0568906    -2.450858 
 4180000    1.0661401 7.6223335e-05   0.50544569  0.021616351            0   0.48382934    1.5858834    2.0913291    4.6930856 
 4185000    1.1179372 0.00014107028   0.43950873  0.067578305            0   0.37193043    1.6629316    2.1024403    6.9176393 
 4190000    1.1190486 0.00016833447   0.42024513  0.017193449            0   0.40305168    1.6645848      2.08483    7.8306467 
 4195000    1.0589493 -8.1987692e-05   0.50047869 0.0050876953            0     0.495391    1.5751871    2.0756658  -0.72284741 
 4200000    1.1014437 -9.7206302e-05   0.42039118 0.0023305251            0   0.41806066    1.6383974    2.0587886   -1.2591865 
 4205000    1.0539296 -0.00014694924    0.5003143  0.011847464            0   0.48846683    1.5677203    2.0680346   -2.9478328 
 4210000    1.0275096 -6.8997316e-05   0.53840887  0.008216382            0   0.53019248    1.5284205    2.0668294    -0.288279 
 4215000     1.096062 -0.00013585246   0.44846523 0.0071844852            0   0.44128074    1.6303922    2.0788574   -2.5582399 
 4220000    1.1147213 -9.692117e-05   0.43619073  0.015439706            0   0.42075102    1.6581479    2.0943387   -1.2139039 
 4225000    1.0402018 -5.2468088e-05   0.54619751 0.0075548133            0    0.5386427    1.5473002    2.0934977   0.30258701 
 4230000    1.0897928 -8.5968685e-05   0.45615649  0.029350964            0   0.42680553    1.6210667    2.0772232  -0.85717453 
 4235000    1.1138111 0.00011058159   0.42097969  0.040127696            0   0.38085199     1.656794    2.0777736    5.8522921 
 4240000    1.0653332 9.0616788e-05   0.50080748  0.034069368            0   0.46673811    1.5846831    2.0854906    5.1785436 
 4245000    1.0550234 -5.5850729e-05   0.53187668  0.025283536            0   0.50659314    1.5693472    2.1012239   0.19485237 
 4250000    1.1014916 -1.3842519e-05    0.4583553  0.027118712            0   0.43123659    1.6384687     2.096824    1.6243327 
 4255000    1.0454772 -0.00022795226   0.55659853  0.021023158            0   0.53557537    1.5551473    2.1117458   -5.6690245 
 4260000    1.0757913 -6.1279954e-05   0.50027966 0.0027408224            0   0.49753883    1.6002396    2.1005192 0.0088301329 
 4265000    1.0958187 -3.3565629e-05   0.46462933 0.0065005674            0   0.45812877    1.6300303    2.0946596   0.94895285 
 4270000    1.1232294 9.2352737e-05   0.45436742  0.015063288            0   0.43930414    1.6708037    2.1251711    5.2774779 
 4275000    1.0529706 3.6797908e-05   0.54535837  0.041554665            0    0.5038037    1.5662937    2.1116521    3.3676873 
 4280000    1.0263996 -5.4106252e-05   0.59510776  0.035588944            0   0.55951881    1.5267694    2.1218772   0.27505041 
 4285000    1.1106894 -5.1847698e-05   0.48458263  0.010513797            0   0.47406883    1.6521505    2.1367331   0.36699834 
 4290000    1.1310749 7.8812512e-05   0.46800186 0.00036352881            0   0.46763833    1.6824739    2.1504758    4.8406095 
 4295000     1.089091 3.9089262e-05   0.49685455 0.0016118705            0   0.49524268    1.6200228    2.1168774    3.4511242 
 4300000    1.0970018 -0.00011657028   0.47880686 0.0054020531            0   0.47340481    1.6317901     2.110597   -1.8683352 
 4305000     1.054819 -5.9884626e-05   0.55176991  0.010936242            0   0.54083367    1.5690433    2.1208132  0.076751305 
 4310000    1.0777132 -5.2416249e-05   0.52709006  0.013149379            0   0.51394068    1.6030984    2.1301884   0.34104713 
 4315000    1.1494979 -0.00015433472   0.43044725  0.015652973            0   0.41479427    1.7098781    2.1403253   -3.1276331 
 4320000    1.0923079 -4.1541422e-05   0.48998194  0.019286312            0   0.47069562     1.624808      2.11479   0.69684277 
 4325000    1.0637256 0.00010607629   0.50797877  0.023422561            0   0.48455621    1.5822918    2.0902705    5.7110078 
 4330000    1.0762571 1.1198526e-05   0.51461822  0.019122532            0   0.49549569    1.6009325    2.1155507    2.4977937 
 4335000    1.0795686 -1.5657494e-05   0.49025778  0.034710245            0   0.45554754    1.6058583    2.0961161    1.5616737 
 4340000    1.0450641 -3.4671885e-05   0.51141285  0.021512443            0   0.48990041    1.5545328    2.0659457   0.88247866 
 4345000    1.0481725 -3.927924e-05   0.48575138 0.0032973806            0     0.482454    1.5591566     2.044908   0.70417657 
 4350000    1.0893442 3.0019459e-05   0.42752562  0.011326613            0   0.41619901    1.6203995    2.0479251    3.0725893 
 4355000    1.1029815 7.5355515e-05   0.43339083   0.01826081            0   0.41513002     1.640685    2.0740758    4.6462107 
 4360000    1.0540729 3.386721e-05   0.51625458 0.0023506029            0   0.51390397    1.5679334     2.084188    3.2401887 
 4365000    1.0815362 -5.473361e-06   0.50058615  0.011116269            0   0.48946988    1.6087851    2.1093713    1.9225472 
 4370000    1.0854375 1.2506095e-05   0.49639483   0.04383688            0   0.45255795    1.6145882     2.110983    2.5378578 
 4375000    1.0717813 6.1258471e-05     0.534772   0.05929929            0   0.47547271    1.5942747    2.1290467    4.2200025 
 4380000    1.1011988 -4.3950122e-05   0.48735727  0.032137151            0   0.45522012    1.6380332    2.1253905   0.62522633 
 4385000    1.0256947 -7.2468559e-05   0.61005028  0.040271324            0   0.56977896    1.5257208    2.1357711  -0.33782236 
 4390000    1.0567156 -7.5701362e-05   0.55852756  0.023422681            0   0.53510488    1.5718645     2.130392  -0.45354781 
 4395000    1.1282206 -6.7818423e-05   0.46113346 0.0042276872            0   0.45690578    1.6782282    2.1393617  -0.17550718 
 4400000    1.1323858 2.0210512e-05   0.45609247 0.0015918653            0    0.4545006    1.6844238    2.1405163    2.8303684 
 4405000    1.1034503 4.0281203e-05   0.50410077  0.010173012            0   0.49392775    1.6413823    2.1454831    3.5204148 
 4410000    1.1096377 0.00015217608   0.46493543  0.015755861            0   0.44917957     1.650586    2.1155215    7.3097983 
 4415000    1.0811116 -2.5025798e-05   0.51599697  0.021841509            0   0.49415546    1.6081535    2.1241504    1.2699365 
 4420000    1.0535765 -3.5685396e-05   0.54343451  0.011717336            0   0.53171718    1.5671951    2.1106296   0.89256806 
 4425000     1.072278 -0.00011600405   0.48959821  0.013443383            0   0.47615482    1.5950135    2.0846117   -1.8749932 
 4430000    1.0865114 -4.3114815e-05   0.47551018  0.011816916            0   0.46369327    1.6161858    2.0916959   0.62004358 
 4435000    1.0499601 2.8347911e-06   0.53391554  0.014358085            0   0.51955745    1.5618157    2.0957313    2.1924921 
 4440000    1.0500576 7.5566563e-05   0.53802538 0.0072033256            0   0.53082205    1.5619608    2.0999861    4.6793248 
 4445000    1.1033475 2.4755931e-05   0.47068446  0.036212814            0   0.43447165    1.6412294    2.1119139    2.9569164 
 4450000    1.1147913 7.676265e-05    0.4191396  0.040542428            0   0.37859717     1.658252    2.0773916    4.6975567 
 4455000    1.0666693 8.6782148e-07   0.51180556  0.035168598            0   0.47663696    1.5866705    2.0984761    2.1280977 
 4460000    1.0219479 1.2857314e-05   0.55431838  0.019134542            0   0.53518384    1.5201475    2.0744658    2.5133288 
 4465000    1.0884811 3.8061653e-05   0.47037339  0.017251615            0   0.45312178    1.6191156     2.089489    3.3886601 
 4470000    1.0186203 -3.1574079e-05   0.53910394 0.0099752694            0   0.52912867    1.5151977    2.0543017    0.9765731 
 4475000    1.0879826 -1.698766e-05   0.45968067  0.015811872            0    0.4438688    1.6183741    2.0780548    1.4982093 
 4480000    1.1082508 4.1831766e-05   0.42878793  0.022949315            0   0.40583861     1.648523    2.0773109    3.5051686 
 4485000   0.97568397 8.4436246e-05   0.65416435  0.051855736            0   0.60230862    1.4513299    2.1054943    4.9875848 
 4490000    1.0043927 0.00015350135   0.60332607   0.10517247            0    0.4981536    1.4940341    2.0973602    7.3368731 
 4495000    1.0439208 -6.4716553e-05   0.54595214  0.063483881            0   0.48246826    1.5528322    2.0987843  -0.11020738 
 4500000    1.0480294 -3.7918213e-06   0.52903383  0.037752928            0    0.4912809    1.5589438    2.0879776    1.9585501 
 4505000    1.1070491 -1.31064e-06   0.44194245  0.023609942            0   0.41833251    1.6467356     2.088678    2.0439415 
 4510000    1.0909891 -0.0001003545   0.48198526  0.013996939            0   0.46798832    1.6228463    2.1048315    -1.320602 
 4515000     1.098919 -5.9541354e-05   0.48885702  0.032246511            0   0.45661051     1.634642     2.123499  0.091154084 
 4520000    1.1107348 6.9772686e-05   0.47043478  0.029292014            0   0.44114276    1.6522181    2.1226528    4.5042272 
 4525000    1.0219156 0.00024071969   0.56186544  0.025020763            0   0.53684467    1.5200995    2.0819649     10.29853 
 4530000    1.0500238 7.4621642e-05   0.56456589  0.030627639            0   0.53393825    1.5619104    2.1264763    4.6735617 
 4535000    1.1355108 -6.6470807e-05   0.45883579    0.0108816            0   0.44795419    1.6890723    2.1479081  -0.12096213 
 4540000    1.1445032 -3.3720657e-05   0.45502655 0.0097566772            0   0.44526987    1.7024485     2.157475    1.0064766 
 4545000    1.0684368 0.00012974904   0.56457735   0.01754768            0   0.54702967    1.5892997    2.1538771    6.5826444 
 4550000    1.0863649 0.00013935986   0.54219429  0.016694798            0   0.52549949    1.6159678    2.1581621    6.9149786 
 4555000    1.0812203 0.00020930874   0.55857779  0.025823265            0   0.53275453    1.6083152     2.166893    9.3112979 
 4560000    1.0945763 0.00010250805   0.53663284  0.073118016            0   0.46351483    1.6281823    2.1648152    5.6637567 
 4565000    1.1143763 -7.2876854e-05   0.49559905  0.016736184            0   0.47886287    1.6576348    2.1532338  -0.33429614 
 4570000    1.0662114 -6.4995458e-05   0.57941812 0.0079777357            0   0.57144038    1.5859895    2.1654076  -0.05310401 
 4575000    1.1413144 -9.9917091e-05   0.47141937  0.014437498            0   0.45698187    1.6977052    2.1691245   -1.2413788 
 4580000    1.1129739 -8.6046316e-05   0.51986163  0.040002935            0   0.47985869    1.6555487    2.1754104  -0.76163722 
 4585000    1.0672441 4.7937187e-05    0.5924284   0.04259204            0   0.54983636    1.5875256     2.179954      3.81621 
 4590000     1.085632 -1.3313713e-05   0.55258614  0.034298143            0     0.518288    1.6148777    2.1674638    1.7130224 
 4595000    1.1021216 3.947385e-05   0.51494936   0.01236003            0   0.50258933    1.6394059    2.1543553    3.5017294 
 4600000    1.1230241 9.7604124e-05   0.48679432  0.010710362            0   0.47608396    1.6704983    2.1572926    5.4888467 
 4605000    1.0447419 -6.0814509e-05   0.62341214  0.033807284            0   0.58960486    1.5540536    2.1774657   0.10166377 
 4610000    1.0655031 3.4971138e-05   0.58266952  0.014090493            0   0.56857903    1.5849359    2.1676054    3.3612869 
 4615000     1.105054 3.2637886e-05   0.51285025  0.015556795            0   0.49729346    1.6437678    2.1566181    3.2706579 
 4620000    1.1122255 -3.9147791e-06   0.48655919  0.038877987            0    0.4476812    1.6544354    2.1409946    2.0073701 
 4625000    1.0585556 7.263589e-05   0.55911996  0.012015047            0   0.54710492    1.5746015    2.1337214    4.6130265 
 4630000    1.0649773 8.6088294e-06   0.55988089  0.015010383            0   0.54487051    1.5841537    2.1440346    2.4378826 
 4635000    1.0838279 -2.8512516e-05   0.53891182  0.014355129            0   0.52455669     1.612194    2.1511059    1.1778787 
 4640000    1.0624353 1.7889988e-05   0.58987836  0.014006548            0   0.57587181    1.5803724    2.1702508    2.7808957 
 4645000    1.0790444 0.0001645871   0.55732744  0.031464812            0   0.52586262    1.6050785     2.162406    7.7803122 
 4650000    1.0817819 8.6364943e-05   0.54972115   0.06022409            0   0.48949706    1.6091506    2.1588717    5.1067951 
 4655000    1.1006078 -0.00011685287   0.55359517  0.027986639            0   0.52560853    1.6371541    2.1907493   -1.7978287 
 4660000    1.0812475 -4.2500909e-05   0.56585263 0.0092752634            0   0.55657736    1.6083557    2.1742083    0.7235106 
 4665000    1.0882486 8.9574648e-05   0.54639962 0.0023420548            0   0.54405757    1.6187698    2.1651694    5.2226507 
 4670000    1.0973613 6.1867771e-05     0.546207 0.0049348662            0   0.54127213    1.6323249    2.1785319    4.2902851 
 4675000    1.0981271 -5.7980016e-05   0.54700146 0.0057184012            0   0.54128306     1.633464    2.1804655   0.20141428 
 4680000     1.082532 2.4110866e-05    0.5524099 0.0083848373            0   0.54402506    1.6102663    2.1626762    2.9856605 
 4685000    1.1230816 4.3533919e-05    0.4933792  0.020823535            0   0.47255566    1.6705839    2.1639631    3.6499209 
 4690000    1.1281961 -8.9945734e-05   0.49354417  0.039347144            0   0.45419703    1.6781916    2.1717358  -0.89841193 
 4695000    1.0407529 -0.00013852477   0.62910833  0.022647451            0   0.60646088    1.5481199    2.1772283    -2.551084 
 4700000    1.0758953 -8.9180307e-05    0.5654083  0.010940027            0   0.55446827    1.6003942    2.1658025  -0.87821864 
 4705000    1.1022273 -0.00013279038   0.51579529  0.017817297            0     0.497978    1.6395632    2.1553584   -2.3772199 
 4710000    1.0644813 -3.898223e-05     0.563291  0.031406903            0   0.53188409     1.583416     2.146707   0.81611354 
 4715000    1.0651199 -2.7941846e-06   0.54067166  0.039484552            0   0.50118711    1.5843658    2.1250375    2.0296626 
 4720000    1.0921801 4.2423795e-05    0.5036962  0.029331743            0   0.47436446     1.624618    2.1283142    3.5763797 
 4725000    1.0813821 0.00014232786   0.50402621 0.0063867633            0   0.49763945    1.6085559    2.1125822    6.9707065 
 4730000    1.0253489 5.9756412e-05   0.59533563  0.016884998            0   0.57845063    1.5252065    2.1205422    4.1602277 
 4735000    1.0611642 -3.4354302e-05   0.52943854  0.029055769            0   0.50038277    1.5784818    2.1079203   0.93529345 
 4740000     1.065232 -2.9926156e-05   0.53059679   0.04674401            0   0.48385278    1.5845326    2.1151294      1.09365 
 4745000     1.045572 -3.1251814e-06   0.54018719  0.019633082            0   0.52055411    1.5552883    2.0954755    1.9888027 
 4750000     1.066712 -1.3067375e-05   0.50635717  0.020696037            0   0.48566114    1.5867341    2.0930913    1.6470582 
 4755000    1.0730973 2.1626672e-06     0.533622  0.019227463            0   0.51439454    1.5962322    2.1298542    2.2036733 
 4760000    1.0904906 6.1910744e-05   0.50102267  0.017918815            0   0.48310386    1.6221047    2.1231274    4.2363475 
 4765000    1.0895275 -8.024589e-05   0.53009017 0.0080185974            0   0.52207157    1.6206721    2.1507623   -0.5882974 
 4770000    1.1124379 7.8694836e-05   0.51420978  0.013809339            0   0.50040044    1.6547514    2.1689612    4.8550783 
 4775000    1.0678721 0.00014905917   0.57270081   0.03402609            0   0.53867472    1.5884598    2.1611606    7.2490471 
 4780000    1.1190583 -2.4386127e-05   0.50830432  0.037446466            0   0.47085785    1.6645992    2.1729036    1.3405238 
 4785000    1.0889274 4.1005426e-05   0.55347648  0.033043579            0    0.5204329    1.6197794    2.1732559    3.5729078 
 4790000    1.0977957 3.2273058e-05   0.52832753  0.015394041            0   0.51293349    1.6329711    2.1612987    3.2628857 
 4795000     1.118551 -4.3030735e-05   0.49032389  0.025011363            0   0.46531253    1.6638446    2.1541685   0.68538613 
 4800000    1.0635671 0.00010527727   0.57767766  0.048842734            0   0.52883493    1.5820561    2.1597338     5.753198 
 4805000    1.0922109 0.00016244497   0.53162541  0.035637058            0   0.49598835    1.6246637    2.1562891    7.7010775 
 4810000     1.086381 6.5070943e-05   0.56922199  0.019354858            0   0.54986714    1.6159918    2.1852138     4.406302 
 4815000    1.1503894 7.9594282e-05   0.51212799  0.020370845            0   0.49175715    1.7112043    2.2233323    4.9401505 
 4820000    1.1312996 -2.1152758e-05   0.54222966  0.055331115            0   0.48689854    1.6828081    2.2250377    1.5030236 
 4825000    1.1453232 -0.00029688941    0.5259371  0.024464673            0   0.50147242    1.7036683    2.2296054   -7.9042199 
 4830000    1.1061164 -0.00014074312   0.54147956   0.01707883            0   0.52440073    1.6453482    2.1868278    -2.617204 
 4835000     1.086445 4.3388893e-06   0.55198502  0.022159608            0   0.52982541    1.6160869    2.1680719    2.3161727 
 4840000    1.1044217 4.6811815e-06   0.53957305  0.019049261            0   0.52052379    1.6428273    2.1824004    2.3421847 
 4845000    1.1336729 0.00011085383   0.47785539  0.036206926            0   0.44164846    1.6863384    2.1641938    5.9480045 
 4850000    1.0548143 -7.2841826e-05   0.59051933  0.066330711            0   0.52418862    1.5690362    2.1595555  -0.32677878 
 4855000    1.0957667 -5.1289512e-05   0.53224412  0.025842479            0   0.50640164    1.6299529    2.1621971   0.41151504 
 4860000    1.1093238 4.1673334e-05   0.50137769  0.042941424            0   0.45843627    1.6501191    2.1514968    3.5739467 
 4865000    1.1961553 -9.4104543e-05   0.34686302  0.013875784            0   0.33298724     1.779281     2.126144   -1.0859578 
 4870000    1.0296587 -3.6735326e-05   0.57709504  0.015358848            0   0.56173619    1.5316173    2.1087124   0.85481324 
 4875000    1.0446743 6.6607826e-05   0.55916713  0.058840384            0   0.50032675    1.5539531    2.1131202    4.3866673 
 4880000    1.0963881 -0.00010552372   0.46227342  0.010878201            0   0.45139522    1.6308772    2.0931507   -1.5087256 
 4885000    1.1005623 -0.000233606   0.46759596  0.031589369            0   0.43600659    1.6370864    2.1046824   -5.8690691 
 4890000      1.05515 -8.6494132e-05   0.53887851  0.008362339            0   0.53051617    1.5695357    2.1084142  -0.84391885 
 4895000    1.0880151 0.00012910648   0.48344996 0.0036857363            0   0.47976423    1.6184225    2.1018724     6.508707 
 4900000    1.0851731 1.1981097e-05   0.49582125  0.016264012            0   0.47955724     1.614195    2.1100163     2.518971 
 4905000    1.0274819 2.1969621e-05    0.5828135  0.053409816            0   0.52940369    1.5283794    2.1111929    2.8610893 
 4910000    1.0874097 3.8976362e-05   0.50352898  0.043440407            0   0.46008857    1.6175219    2.1210509     3.451444 
 4915000    1.0882269 -3.5996841e-05   0.51350591  0.016783762            0   0.49672214    1.6187376    2.1322435   0.90355131 
 4920000     1.032687  7.68064e-05   0.56891561   0.02364201            0    0.5452736    1.5361218    2.1050375    4.7266959 
 4925000    1.1238664 6.5504938e-05   0.43475059  0.016414719            0   0.41833587    1.6717513    2.1065019    4.3424038 
 4930000    1.0848015 2.2440198e-05   0.47669155  0.011767025            0   0.46492452    1.6136422    2.0903338    2.8562925 
 4935000    1.0300926 0.00014731192   0.60001419 0.0088560313            0   0.59115816    1.5322627    2.1322769    7.1605239 
 4940000    1.0497773 6.2424812e-06   0.58089346  0.011482592            0   0.56941086    1.5615438    2.1424372    2.3555139 
 4945000    1.0907396 -3.6926573e-05   0.53307423  0.021775657            0   0.51129857    1.6224752    2.1555494   0.89512237 
 4950000    1.0895034 3.2235052e-05   0.51921566  0.044580922            0   0.47463473    1.6206364     2.139852    3.2401418 
 4955000    1.1205214 -0.00013205532   0.49799204  0.026056261            0   0.47193578    1.6667755    2.1647676   -2.3427206 
 4960000    1.1036523 -0.00018556159   0.53317845  0.012243853            0    0.5209346    1.6416828    2.1748612   -4.1589742 
 4965000    1.0641673 5.4326351e-05   0.55522156  0.017907186            0   0.53731438    1.5829489    2.1381705    3.9925099 
 4970000    1.0608547 0.00019128282   0.53093413  0.019614367            0   0.51131977    1.5780214    2.1089556    8.6380757 
 4975000     1.076025 8.3864335e-05   0.50049974  0.027430068            0   0.47306967    1.6005872     2.101087    4.9636563 
 4980000    1.0332991 9.153052e-06   0.51998385  0.055997008            0   0.46398684    1.5370324    2.0570163    2.3694405 
 4985000    1.0037214 6.133818e-05   0.55802798   0.02845357            0   0.52957441    1.4930356    2.0510636    4.1447401 
 4990000    1.0932971 -7.3862116e-05   0.44737473  0.011731044            0   0.43564369    1.6262794    2.0736542  -0.44750608 
 4995000    1.0561266 -0.00010533448   0.51934821  0.012473625            0   0.50687459    1.5709884    2.0903366   -1.5050802 
 5000000    1.0874824 3.9198023e-05   0.46625819  0.020188573            0   0.44606961      1.61763    2.0838882    3.4218474 
 5005000    1.0916288 7.6276152e-06   0.47271268 0.0095520498            0   0.46316063    1.6237978    2.0965105    2.3568664 
 5010000    1.0292828 -9.8058156e-05   0.55973663 0.0086117794            0   0.55112485    1.5310582    2.0907948   -1.2562569 
 5015000     1.089869 -3.5520618e-05   0.45659243  0.024240497            0   0.43235194    1.6211801    2.0777725   0.86533542 
 5020000    1.0471072 6.7231843e-05   0.49388303  0.033248654            0   0.46063438     1.557572     2.051455    4.3463019 
 5025000    1.0382593 -4.5809174e-05   0.51177524  0.019885263            0   0.49188998    1.5444107     2.056186   0.49256613 
 5030000    1.0162887 -0.00012940361   0.53305377  0.027508197            0   0.50554558    1.5117295    2.0447833   -2.3721935 
 5035000    1.0705428 -0.00012290387   0.43422098  0.046343542            0   0.38787744    1.5924324    2.0266534   -2.1684653 
 5040000   0.98510275 -8.6895592e-05   0.51966121  0.074522703            0    0.4451385    1.4653403    1.9850015  -0.98103468 
 5045000   0.99001413 0.00013843259   0.53121102  0.050068501            0   0.48114252     1.472646     2.003857    6.7290229 
 5050000    1.0091338 0.0001541137   0.51832152  0.015866191            0   0.50245533    1.5010866    2.0194081    7.2798224 
 5055000     1.026939 0.00010187024   0.50541426 0.0090191333            0   0.49639513    1.5275718     2.032986    5.5101568 
 5060000    1.0409676 0.0001592831    0.4994196 0.0062679222            0   0.49315168    1.5484393    2.0478589    7.4847219 
 5065000     1.068313 -8.3262352e-05   0.45563219 0.0081041836            0   0.44752801    1.5891156    2.0447478  -0.79727383 
 5070000    1.0565486 -5.7253159e-05   0.45801106 0.0086294923            0   0.44938157     1.571616    2.0296271  0.075385925 
 5075000    1.0908453 6.0531078e-05   0.42257539  0.013963376            0   0.40861202    1.6226325    2.0452079    4.1113353 
 5080000    1.0657568 -3.8000313e-06   0.47966125  0.021873814            0   0.45778744    1.5853133    2.0649745    1.9352668 
 5085000    1.0531247 -0.00017324029   0.50004079  0.025837001            0   0.47420379     1.566523    2.0665638   -3.8467048 
 5090000    1.0771754 -8.264614e-05   0.46996727  0.029748657            0   0.44021862    1.6022984    2.0722657  -0.74872258 
 5095000    1.0791499 -4.8023156e-05    0.4690618 0.0053774745            0   0.46368432    1.6052354    2.0742972   0.43510683 
 5100000    1.0263639 7.5913156e-05   0.56018353   0.02025308            0   0.53993045    1.5267164    2.0868999     4.678069 
 5105000    1.0620953 5.1795338e-06   0.53575643  0.027034598            0   0.50872183    1.5798667    2.1156232    2.2924179 
 5110000     1.063389 -0.00010174458   0.51633606 0.0086306827            0   0.50770537    1.5817911    2.0981271   -1.3747545 
 5115000    1.0681168 8.9033762e-05   0.49852879  0.033378161            0   0.46515063    1.5888238    2.0873526    5.1263717 
 5120000    1.0564121 0.00019148629   0.51046386 0.0046398398            0   0.50582402     1.571413    2.0818769    8.6179424 
 5125000    1.0597478 0.00010621392   0.47770055 0.0044886031            0   0.47321194    1.5763749    2.0540754    5.6795107 
 5130000    1.0444012 0.00010356403   0.48236816  0.018001225            0   0.46436694    1.5535468     2.035915    5.5709007 
 5135000     1.048568 6.9457127e-05   0.46599401  0.011384463            0   0.45460955    1.5597448    2.0257388    4.3965421 
 5140000    1.0360773 9.1876743e-06   0.46538795  0.014420958            0   0.45096699     1.541165    2.0065529    2.3201589 
 5145000    1.0265166 -3.3901782e-05   0.48498132  0.031454867            0   0.45352645    1.5269434    2.0119247   0.85474391 
 5150000      1.00517 0.00012602319   0.51050615  0.064991006            0   0.44551514    1.4951904    2.0056965    6.3072882 
 5155000    1.0250978 7.0689368e-06   0.49704874  0.026524817            0   0.47052392    1.5248329    2.0218817    2.2631681 
 5160000    1.0172348 0.00016896374   0.50397734  0.043930365            0   0.46004698    1.5131368    2.0171141    7.7844098 
 5165000    1.0441232 1.889283e-05   0.45189754  0.015679544            0   0.43621799    1.5531332    2.0050307     2.649906 
 5170000   0.99887398 -0.000228926   0.51820265  0.014779809            0   0.50342284     1.485825    2.0040277   -5.8099799 
 5175000    1.0705639 -9.2529478e-05    0.4459704  0.036729075            0   0.40924132    1.5924638    2.0384342   -1.1199053 
 5180000    1.0277892 0.00019422521   0.48448229  0.021766741            0   0.46271555    1.5288364    2.0133187    8.6428726 
 5185000    1.0449192 4.7503194e-05   0.48020585  0.036658996            0   0.44354685    1.5543174    2.0345232    3.6559656 
 5190000    1.0368929 3.5192877e-05   0.49260133  0.022406773            0   0.47019456    1.5423782    2.0349795    3.2362297 
 5195000    1.0536457 4.0930266e-05   0.47925227  0.028845434            0   0.45040683     1.567298    2.0465502    3.4436367 
 5200000    1.0445286 -8.1267396e-05   0.46306132  0.025704472            0   0.43735684    1.5537363    2.0167977  -0.75712947 
 5205000     1.006032 -1.1279684e-05   0.51232997  0.008029459            0   0.50430051    1.4964726    2.0088026    1.6237894 
 5210000    1.0611788 -1.1515325e-05     0.401235 0.0053534075            0   0.39588159    1.5785035    1.9797385     1.586682 
 5215000   0.99885655 9.8740625e-05    0.5095453 0.0022772819            0   0.50726802    1.4857991    1.9953444    5.3656911 
 5220000    1.0763437 3.4113268e-05   0.39518963 0.0030019582            0   0.39218767    1.6010613    1.9962509    3.1606505 
 5225000     1.019296 6.3499135e-06   0.45207178  0.018384484            0   0.43368729    1.5162029    1.9682746    2.1850184 
 5230000     1.016117 -6.1893873e-05    0.4511231 0.0099598676            0   0.44116323     1.511474    1.9625971  -0.15004706 
 5235000   0.99597191 -4.1329958e-05   0.47141554  0.028060474            0   0.44335507    1.4815082    1.9529238   0.54219453 
 5240000    1.0293993 -1.4393425e-05   0.43949758  0.040334932            0   0.39916265    1.5312315     1.970729    1.4794335 
 5245000   0.99104746 -4.2465396e-05   0.47823665 0.0098855531            0    0.4683511    1.4741831    1.9524197   0.50293423 
 5250000   0.97692023 0.00014555126   0.46540436 0.0012272075            0   0.46417715    1.4531688    1.9185732    6.8867229 
 5255000   0.99456709 6.3934322e-06   0.43409048 0.00071472268            0   0.43337576    1.4794185     1.913509    2.1317382 
 5260000    1.0133617 -0.00015091663   0.42517146 0.0021983258            0   0.42297314    1.5073756    1.9325471   -3.2187406 
 5265000   0.94954356 -8.9586289e-05   0.52128942   0.01100574            0   0.51028367     1.412446    1.9337355   -1.1241432 
 5270000   0.93010804 -0.00014142897   0.56786908  0.027430343            0   0.54043874    1.3835357    1.9514048   -2.8760374 
 5275000   0.98358841 -5.7270947e-05   0.48714061  0.033485822            0   0.45365479    1.4630878    1.9502284 -0.0046199555 
 5280000    1.0289981 5.198102e-05   0.44942579  0.014982913            0   0.43444288    1.5306347    1.9800605     3.754346 
 5285000    1.0363819 0.00010610482   0.43526965 0.0079661389            0   0.42730351    1.5416181    1.9768878     5.598599 
 5290000   0.96573958 -1.454166e-05   0.53605008  0.015129715            0   0.52092036    1.4365376    1.9725877    1.4762324 
 5295000    1.0027913 -0.00010851395   0.49284796  0.028497332            0   0.46435063    1.4916521       1.9845   -1.7194429 
 5300000    1.0356045 0.00010332495   0.46158789  0.026310858            0   0.43527703    1.5404616    2.0020495    5.5288746 
 5305000    1.0456531 5.6526354e-05   0.46994612  0.020636561            0   0.44930956     1.555409    2.0253551     3.954788 
 5310000    1.0485335 2.0850632e-05   0.46281843  0.014120993            0   0.44869744    1.5596936     2.022512    2.7342135 
 5315000    1.0553709 -2.1028854e-05   0.45623067   0.02123102            0   0.43499965    1.5698642    2.0260949      1.30831 
 5320000    1.0361678 -4.8880832e-05   0.49455578  0.016775781            0      0.47778    1.5412996    2.0358554   0.36738968 
 5325000    1.0834133 1.3804433e-05   0.40661023 0.0029229465            0   0.40368728    1.6115772    2.0181874    2.4893787 
 5330000    1.0060411 5.9739742e-05   0.49957039  0.016726267            0   0.48284412    1.4964862    1.9960566    4.0351731 
 5335000    1.0322643 -1.2379779e-05   0.45518474  0.034245722            0   0.42093902    1.5354932    1.9906779    1.5681148 
 5340000    1.0718743 8.8831066e-05   0.39913759  0.030250984            0   0.36888661     1.594413    1.9935506     5.025651 
 5345000   0.97534581 6.9171279e-05   0.52616089  0.050492894            0   0.47566799    1.4508269    1.9769878    4.3380341 
 5350000    1.0268822 -5.2797813e-05   0.45549446  0.019698264            0    0.4357962    1.5274873    1.9829818   0.18081639 
 5355000    1.0672467 5.7245334e-06   0.38667817   0.02215302            0   0.36452515    1.5875295    1.9742076     2.169605 
 5360000    1.0594239 -5.0330128e-05   0.43020526  0.040399211            0   0.38980605     1.575893    2.0060982   0.28816321 
 5365000    1.0472579 4.4741526e-05   0.43210823  0.020559372            0   0.41154885    1.5577962    1.9899044    3.5170818 
 5370000    1.0299876 5.5536193e-05   0.46876928  0.022317768            0   0.44645151    1.5321065    2.0008758    3.8965112 
 5375000    1.0373579 -1.577394e-05   0.47075028  0.015610966            0   0.45513931    1.5430698    2.0138201    1.4754029 
 5380000    1.0674307 -4.0638455e-05   0.42118029  0.027534428            0   0.39364586    1.5878031    2.0089834   0.62185748 
 5385000    1.0045309 -0.00014696347     0.515102  0.038233198            0    0.4768688    1.4942397    2.0093417   -3.0070112 
 5390000    1.0172615 0.00011776565   0.49900464  0.078095646            0   0.42090899    1.5131764    2.0121811    6.0319152 
 5395000    1.0288881 7.7001439e-05   0.47878777  0.022243542            0   0.45654423    1.5304711    2.0092588    4.6375746 
 5400000    1.0617127 2.090373e-05   0.43056071    0.0290046            0   0.40155611    1.5792976    2.0098583    2.7233723 
 5405000    1.0745489 7.3604101e-05    0.4373736  0.020088209            0   0.41728539    1.5983915    2.0357651    4.5481184 
 5410000    1.0596751 -1.4299766e-05   0.45768428  0.010995809            0   0.44668847    1.5762667     2.033951    1.5458524 
 5415000    1.1075294 3.5163282e-05   0.39592633  0.016829494            0   0.37909684      1.64745    2.0433763    3.2436163 
 5420000    1.0907043 7.8773336e-05   0.44309465 0.0053526217            0   0.43774202    1.6224226    2.0655172    4.7543138 
 5425000    1.0520388 1.238982e-05   0.48940764 0.0060014896            0   0.48340615    1.5649077    2.0543153    2.4772212 
 5430000    1.0680598 -0.0001286235   0.48005285   0.03088173            0   0.44917112    1.5887389    2.0687918   -2.3215569 
 5435000    1.1023419 -0.00013996747   0.41911237  0.023018086            0   0.39609428    1.6397335    2.0588459   -2.7187104 
 5440000    1.1009565 8.963591e-05   0.40617322 0.0050031516            0   0.40117007    1.6376728     2.043846    5.1034184 
 5445000    1.0712202 1.8357753e-05   0.44428677  0.017510246            0   0.42677653    1.5934401    2.0377268    2.6643381 
 5450000    1.0970589 -7.2189761e-05   0.40934569   0.03691606            0   0.37242963     1.631875    2.0412207  -0.42285643 
 5455000    1.0957789 6.6097542e-06   0.39332813 0.0084248528            0   0.38490328    1.6299712    2.0232993    2.2489123 
 5460000   0.99014187 -1.3767833e-06   0.58174434  0.071215444            0   0.51052889     1.472836    2.0545804    2.0075862 
 5465000    1.0231677 4.9376061e-05   0.53141119  0.042722544            0   0.48868865    1.5219619    2.0533731    3.7387426 
 5470000    1.0580213 -1.9458451e-05   0.44617777  0.032612448            0   0.41356532    1.5738068    2.0199845    1.3558027 
 5475000    1.0657498 -1.8789766e-05   0.41811525  0.055909527            0   0.36220573    1.5853028     2.003418    1.3620607 
 5480000    1.0154171 -7.0457562e-05   0.47248164  0.020252404            0   0.45222923    1.5104329    1.9829145  -0.42203693 
 5485000   0.98524528 4.2838894e-06    0.5019179   0.03400823            0   0.46790967    1.4655524    1.9674703    2.1136937 
 5490000   0.99699915 5.524746e-05    0.4468611   0.02231202            0   0.42454908    1.4830362    1.9298973    3.8156773 
 5495000    0.9753081 1.4556095e-05     0.481188   0.01697306            0   0.46421494    1.4507708    1.9319588    2.4288069 
 5500000    1.0449618 5.0495255e-06    0.3911883  0.012920169            0   0.37826813    1.5543806    1.9455689     2.117926 
 5505000    0.9927286 -6.576208e-05   0.48036827  0.016232637            0   0.46413563    1.4766838    1.9570521  -0.28762693 
 5510000    1.0063822 5.975167e-05   0.46811294   0.02852823            0   0.43958471    1.4969936    1.9651065    4.0046302 
 5515000    1.0447504 0.00012259954   0.43687646  0.031383036            0   0.40549342    1.5540662    1.9909426    6.1756735 
 5520000   0.98585722 -5.8566532e-05   0.51491146  0.034055402            0   0.48085606    1.4664626    1.9813741 -0.017696897 
 5525000    1.0037355 -5.1984893e-05   0.48673734  0.016600643            0   0.47013669    1.4930565    1.9797938   0.20537617 
 5530000    1.0242335 -0.00010996395   0.44793134 0.0080615173            0   0.43986982    1.5235473    1.9714787   -1.7819576 
 5535000    1.0645638 2.0309892e-05   0.40407597  0.016880527            0   0.38719544    1.5835386    1.9876146    2.6808589 
 5540000    1.0065084 0.00011881087   0.50664582  0.017536879            0   0.48910894    1.4971813    2.0038271    6.0592383 
 5545000    1.0052296 -4.3782039e-05   0.50249857 0.0076320805            0   0.49486649     1.495279    1.9977775    0.5033506 
 5550000    1.0366893 -1.4106472e-05   0.43645498  0.023288723            0   0.41316626    1.5420753    1.9785303    1.4970293 
 5555000    1.0159967 -4.7313035e-05   0.47391763  0.037559166            0   0.43635846    1.5112951    1.9852127   0.37026111 
 5560000    1.0065421 -2.2800265e-05   0.46294113  0.022736566            0   0.44020456    1.4972314    1.9601725    1.1819235 
 5565000    1.0247118 0.00020837707   0.44699829  0.028514276            0   0.41848401    1.5242588    1.9712571    9.0838612 
 5570000    1.0107491 3.4651058e-05   0.46276967  0.048445305            0   0.41432437    1.5034893     1.966259    3.1490151 
 5575000    1.0391522 -4.5958281e-05    0.3936766  0.031250025            0   0.36242658    1.5457389    1.9394155   0.37070619 
 5580000    1.0109188 -9.8057389e-05    0.4289734  0.027852758            0   0.40112064    1.5037417    1.9327151   -1.4143105 
 5585000   0.95119873 -0.00017266042   0.50901556  0.014503964            0   0.49451159    1.4149081    1.9239237   -3.9695519 
 5590000    0.9582991 -2.798943e-05   0.50619652  0.038137274            0   0.46805925    1.4254699    1.9316664   0.97629388 
 5595000    1.0039186 7.8807829e-06   0.45090781  0.030535039            0   0.42037277    1.4933289    1.9442367    2.2132341 
 5600000    1.0497837 -2.7674331e-05   0.35715834 0.0072428177            0   0.34991552    1.5615532    1.9187116   0.97409439 
 5605000   0.98328763 2.2371464e-05   0.44960006 0.0014884453            0   0.44811162    1.4626403    1.9122404    2.6758531 
 5610000    0.9841068 9.6640284e-05   0.44308601 0.0084306677            0   0.43465535    1.4638589    1.9069449    5.2055999 
 5615000   0.96190387 7.8913659e-05   0.51847522  0.023816272            0   0.49465895     1.430832    1.9493072    4.6428935 
 5620000    1.0083504 -3.3482756e-05   0.44667647  0.023850473            0   0.42282599    1.4999212    1.9465977   0.80371965 
 5625000    1.0290665 -6.7936694e-05   0.40868548  0.010601288            0   0.39808419    1.5307365     1.939422  -0.37948386 
 5630000   0.90933798 -0.00010045301    0.5732144  0.059422294            0    0.5137921    1.3526402    1.9258546   -1.5029414 
 5635000   0.95826842 -0.00014867266    0.5369765  0.048541018            0   0.48843548    1.4254243    1.9624008   -3.1122928 
 5640000    1.0321433 -1.1294322e-05   0.43077551  0.013374704            0    0.4174008    1.5353131    1.9660886    1.5805758 
 5645000    1.0188209 -9.963761e-05   0.44178517 0.0040968504            0   0.43768832    1.5154961    1.9572813   -1.4436824 
 5650000   0.98502096 -9.0927584e-05   0.48771119 0.0052409212            0   0.48247027    1.4652187    1.9529299   -1.1507317 
 5655000    1.0326975 -4.5139074e-05   0.42213478  0.014064161            0   0.40807062    1.5361375    1.9582723   0.41752527 
 5660000    1.0688474 -4.959361e-05   0.38711792  0.022378257            0   0.36473966    1.5899104    1.9770284   0.28423315 
 5665000     1.025262 -6.1492081e-05   0.44855681  0.016912401            0    0.4316444    1.5250772     1.973634   -0.1252957 
 5670000    1.0357376 1.761971e-05   0.44375164 0.0073018858            0   0.43644975    1.5406597    1.9844114    2.5858308 
 5675000   0.99676959 0.00010248168   0.49825221  0.060632712            0    0.4376195    1.4826948     1.980947    5.4789885 
 5680000    1.0263755 1.1273466e-06   0.43921839  0.047782574            0   0.39143581    1.5267336     1.965952    2.0044321 
 5685000    1.0011828 -0.00013572664   0.45201488  0.027885915            0   0.42412896    1.4892594    1.9412742   -2.6915284 
 5690000   0.95574619 -0.00013503731   0.48761715  0.016842646            0   0.47077451    1.4216725    1.9092896   -2.6999838 
 5695000   0.99828412 2.7672118e-07   0.42066425 0.0071983975            0   0.41346585    1.4849476    1.9056119    1.9150573 
 5700000   0.96223234 0.00010940189   0.48289565 0.0032177389            0   0.47967791    1.4313206    1.9142163    5.6484675 
 5705000    1.0000741 0.00010858812   0.44370939 0.0084344217            0   0.43527497    1.4876102    1.9313196    5.6377943 
 5710000     1.001481 -4.8862117e-05   0.43813642  0.012376273            0   0.42576014    1.4897029    1.9278394   0.26001241 
 5715000    1.0150646 -0.00011175363   0.41454746  0.011502528            0   0.40304494    1.5099087    1.9244561   -1.8900678 
 5720000   0.99960431 -3.184253e-05   0.43716275  0.026120432            0   0.41104232    1.4869114    1.9240742   0.83718248 
 5725000   0.97915324 -6.0103432e-05   0.47716419  0.026755649            0   0.45040854    1.4564904    1.9336546  -0.11787585 
 5730000   0.97087747 -1.5033239e-05   0.51858282  0.049704019            0    0.4688788    1.4441802     1.962763    1.4496285 
 5735000    1.0011146 0.00015047543   0.48315974  0.033007278            0   0.45015246    1.4891579    1.9723177    7.1085457 
 5740000    1.0587912 0.00018237346    0.4057821  0.016047589            0   0.38973451    1.5749519     1.980734     8.205748 
 5745000    0.9868804 0.00013642906   0.50021384  0.010202022            0   0.49001182    1.4679846    1.9681984    6.6249769 
 5750000    1.0353464 2.1303885e-05   0.41774322  0.022337518            0    0.3954057    1.5400778     1.957821    2.6849936 
 5755000    1.0255538 6.1787348e-06   0.42371038  0.019798753            0   0.40391163    1.5255113    1.9492217    2.1601225 
 5760000    1.0342599 2.5920365e-05    0.3956633  0.028584127            0   0.36707917    1.5384617     1.934125    2.8188734 
 5765000   0.94601571 -9.4829725e-05    0.5360593  0.039207037            0   0.49685227    1.4071984    1.9432577   -1.2935969 
 5770000    1.0261443 -0.00013151205   0.45649478   0.02392767            0   0.43256711    1.5263896    1.9828844   -2.5060603 
 5775000   0.96665265 -0.00010523983   0.52021541 0.0087510757            0   0.51146434    1.4378958    1.9581112    -1.634075 
 5780000   0.97232511 6.260098e-05   0.48882562  0.013083518            0    0.4757421    1.4463336    1.9351592    4.0719393 
 5785000   0.94441544 3.8957418e-05   0.52432413  0.021483212            0   0.50284092     1.404818    1.9291421    3.2588886 
 5790000   0.95677252 -0.00011004602   0.51417217  0.024970519            0   0.48920165    1.4231991    1.9373713    -1.818866 
 5795000    1.0126947 -8.8454759e-05    0.4562216  0.012460409            0    0.4437612    1.5063834     1.962605   -1.0566508 
 5800000   0.96993595 -4.5029304e-05   0.50888093 0.0048322331            0    0.5040487    1.4427797    1.9516607    0.4146604 
 5805000   0.93257044 -5.1588516e-05   0.59832619   0.01203231            0   0.58629387    1.3871985    1.9855247   0.22463671 
 5810000    1.0587407 0.00013287914   0.41403227  0.040734115            0   0.37329815    1.5748768    1.9889091    6.5245171 
 5815000    1.0053769 1.0007869e-05   0.48532655  0.015617265            0   0.46970928    1.4954982    1.9808247    2.3224266 
 5820000    1.0201273 -7.6445527e-05   0.48355994  0.019247177            0   0.46431276    1.5174393    2.0009992   -0.6083414 
 5825000    1.0684307 -5.5084059e-06   0.42981264  0.038135947            0   0.39167669    1.5892907    2.0191033     1.831083 
 5830000     1.044867 -2.1989778e-05   0.43580631  0.021582983            0   0.41422332    1.5542396    1.9900459    1.2394615 
 5835000   0.99953177 -0.00016840844   0.52463763 0.0040532837            0   0.52058434    1.4868035    2.0114411   -3.7369003 
 5840000    1.0258522 -0.00016450023   0.47600652  0.032727872            0   0.44327865    1.5259551    2.0019616   -3.6129797 
 5845000    1.0194539 -3.9830583e-05   0.49766427  0.043377214            0   0.45428706    1.5164377     2.014102   0.65455145 
 5850000    1.0132646 -5.5445669e-05   0.51890148  0.051508425            0   0.46739306    1.5072311    2.0261326   0.13358707 
 5855000    1.0680187 3.5793864e-05   0.46021813  0.011441728            0    0.4487764    1.5886778     2.048896    3.2706598 
 5860000    1.0324465 0.0001225732   0.48589529 0.0068159606            0   0.47907933    1.5357641    2.0216594    6.2054913 
 5865000     1.086117 -9.6643272e-05   0.38343299 0.0020981757            0   0.38133481    1.6155991    1.9990321   -1.2997249 
 5870000   0.99782267 -0.00011350512   0.53383937  0.017023281            0   0.51681609    1.4842612    2.0181006   -1.8562076 
 5875000   0.99191567 2.4420878e-05    0.5106636  0.021625338            0   0.48903827    1.4754746    1.9861382    2.8197041 
 5880000    1.0077203 -4.6845942e-05   0.47882861 0.0091651938            0   0.46966342    1.4989839    1.9778125   0.37880434 
 5885000    1.0319238 -6.5352795e-05    0.4385129  0.010219958            0   0.42829294    1.5349866    1.9734995  -0.25720923 
 5890000   0.94733508 1.1808919e-05   0.57895577  0.019756233            0   0.55919954    1.4091609    1.9881167    2.3911945 
 5895000    1.0061033 -9.5837335e-05   0.50359356  0.025895463            0    0.4776981    1.4965786    2.0001722   -1.2710755 
 5900000    1.0741365 -0.00017341259   0.41513189 0.0054262831            0   0.40970561     1.597778    2.0129099   -3.9062399 
 5905000    1.0943048 -1.3125672e-05   0.38039551  0.032490112            0    0.3479054    1.6277784    2.0081739     1.560151 
 5910000   0.96110039 0.00012815104   0.55786811  0.035864692            0   0.52200342    1.4296368    1.9875049     6.361727 
 5915000    1.0408233 4.4005327e-05   0.43020663  0.020177227            0    0.4100294    1.5482246    1.9784313    3.4804798 
 5920000    1.0630314 -9.957226e-05    0.4132936 0.0044700701            0   0.40882353    1.5812592    1.9945528   -1.4041803 
 5925000   0.97283488 2.2260569e-05   0.52229343  0.016295903            0   0.50599753    1.4470919    1.9693853    2.7292128 
 5930000    1.0003022 0.00011607786   0.48233119  0.030728244            0   0.45160295    1.4879495    1.9702807    5.9324051 
 5935000    1.0142043 3.1331406e-05   0.46841512  0.026373165            0   0.44204195    1.5086289     1.977044    3.0464893 
 5940000    1.0065138 -3.8124539e-05   0.46620043  0.037686452            0   0.42851397    1.4971893    1.9633897   0.66207211 
 5945000   0.99438754 -0.00018680024   0.49334798  0.015341071            0   0.47800691    1.4791515    1.9724994   -4.4036154 
 5950000   0.94664514 -0.00016029678   0.56437427  0.040044535            0   0.52432974    1.4081347    1.9725089   -3.4989546 
 5955000   0.97643308 -3.71579e-05   0.50220718  0.047004619            0   0.45520256    1.4524442    1.9546514   0.68632842 
 5960000     1.007003 -5.7429801e-05   0.45195862  0.025107601            0   0.42685101     1.497917    1.9498756 -0.010394968 
 5965000    1.0282763 -8.1400994e-05   0.42687737 0.0075963937            0   0.41928097     1.529561    1.9564383  -0.82204893 
 5970000   0.99288587 -8.5464746e-06   0.47115015 0.0010482513            0    0.4701019    1.4769177    1.9480679    1.6563482 
 5975000    1.0313991 1.4482763e-05   0.41712512 3.1603147e-05            0   0.41709351    1.5342062    1.9513313    2.4456763 
 5980000    1.0400185 3.1779912e-05    0.4067349 0.00093847581            0   0.40579642    1.5470275    1.9537624    3.0385167 
 5985000    1.0200754 7.910275e-05   0.45215612 0.0036777992            0   0.44847832    1.5173622    1.9695183    4.6695589 
 5990000   0.97657427 6.0341757e-05   0.49763848  0.022321798            0   0.47531668    1.4526542    1.9502927     4.009958 
 5995000    1.0595746 -3.1207168e-05   0.36952507  0.016588434            0   0.35293663    1.5761172    1.9456422   0.88043757 
 6000000    1.0029785 -1.0824378e-05    0.4755877  0.041302997            0    0.4342847    1.4919305    1.9675182    1.5980461 
 6005000   0.99545868 3.9084846e-05   0.52703625  0.066856679            0   0.46017957    1.4807448     2.007781    3.3418771 
 6010000    1.0363457 -0.00014445024   0.49006986   0.05243434            0   0.43763552    1.5415643    2.0316341   -2.8989342 
 6015000    1.0323299 -0.00016440379   0.51958341  0.032643942            0   0.48693947    1.5355908    2.0551742   -3.5564751 
 6020000    1.0598672 3.9535294e-05   0.48774752  0.014975138            0   0.47277238    1.5765525       2.0643    3.4137713 
 6025000    1.0784997 -5.8181949e-05   0.44320606   0.02071414            0   0.42249192    1.6042683    2.0474743  0.061530476 
 6030000    1.0817077 -4.9910949e-05   0.43752102    0.0405951            0   0.39692592    1.6090402    2.0465612   0.34293412 
 6035000    1.0295939 5.0010856e-05   0.50931679  0.030352057            0   0.47896473     1.531521    2.0408377     3.747875 
 6040000    1.0363418 1.4353167e-05   0.51776587  0.040040074            0    0.4777258    1.5415584    2.0593242    2.5492457 
 6045000    1.0541293 -3.8455756e-05   0.52013981  0.029663979            0   0.49047583    1.5680174    2.0881572   0.77553404 
 6050000    1.0568397 -5.6676092e-06   0.52380813  0.026002106            0   0.49780602     1.572049    2.0958572    1.9024028 
 6055000     1.061198 -3.0283255e-06    0.5386826  0.021920782            0   0.51676182     1.578532    2.1172146    2.0138478 
 6060000    1.1006041 -7.6684743e-05   0.49600912  0.012950729            0   0.48305839    1.6371486    2.1331578  -0.48434814 
 6065000    1.1519313 -7.7515639e-05   0.43299237 0.0052509659            0    0.4277414    1.7134979    2.1464902   -0.4993769 
 6070000    1.1661768 -2.2900029e-05    0.4165946  0.017098824            0   0.39949578     1.734688    2.1512826    1.3696282 
 6075000    1.0767981 -5.8527668e-05   0.57559219  0.014651764            0   0.56094043    1.6017371    2.1773293   0.17958491 
 6080000     1.136336 -8.1332961e-05   0.46140079 0.0063283124            0   0.45507248    1.6902997    2.1517005  -0.62446455 
 6085000    1.1401549 -4.0057019e-05   0.45360909  0.006849535            0   0.44675955    1.6959804    2.1495895   0.78230995 
 6090000    1.1507568 6.5416126e-05   0.42858032  0.020290442            0   0.40828987    1.7117508    2.1403311    4.3732015 
 6095000    1.0787116 7.2944263e-05   0.51301651  0.043412614            0   0.46960389    1.6045836    2.1176001    4.6074309 
 6100000    1.0867138 5.181762e-05   0.46644326  0.026761259            0     0.439682    1.6164868      2.08293    3.8516381 
 6105000    1.0724807 0.00017988833   0.47709286  0.032886207            0   0.44420665     1.595315    2.0724079    8.2125961 
 6110000   0.98450478 0.00012339146   0.58251084   0.03356616            0   0.54894468    1.4644509    2.0469617    6.2587234 
 6115000    1.0877097 -9.1021285e-05   0.42495412  0.013857915            0   0.41109621    1.6179681    2.0429223   -1.0639376 
 6120000    1.0329274 -6.0466477e-05   0.49342315  0.010789455            0    0.4826337    1.5364795    2.0299027 -0.034019767 
 6125000    1.0447385 -4.2812647e-05   0.49516248 0.0031732903            0   0.49198919    1.5540485     2.049211   0.58787262 
 6130000    1.0941484 -0.00012698129   0.41741514 0.00065990503            0   0.41675523    1.6275457    2.0449609    -2.289334 
 6135000    1.0584627 -9.6544099e-05   0.46549586 0.0064370574            0    0.4590588    1.5744633    2.0399592   -1.2554127 
 6140000   0.96544836 -9.6734016e-05   0.60640155  0.026173551            0     0.580228    1.4361044     2.042506   -1.2593484 
 6145000    1.0759025 -2.1286715e-06   0.46779362  0.072940155            0   0.39485347     1.600405    2.0681986      1.99554 
 6150000   0.96201472 4.8522821e-05   0.63056119  0.043932874            0   0.58662831    1.4309969    2.0615581    3.7178037 
 6155000    1.0718829 1.6513923e-05   0.45773343  0.012451429            0     0.445282    1.5944258    2.0521593    2.6158345 
 6160000    1.0583901 -4.6709607e-05   0.49177524  0.014796675            0   0.47697856    1.5743553    2.0661305   0.47177593 
 6165000    1.0209528 5.5388293e-06   0.56205563  0.018449562            0   0.54360606    1.5186673     2.080723    2.2697817 
 6170000    0.9976997 5.3379831e-05   0.58632204  0.035801098            0   0.55052094    1.4840783    2.0704003    3.8924319 
 6175000    1.0254783 7.4156354e-05   0.52937191  0.015467034            0   0.51390487     1.525399    2.0547709    4.5859745 
 6180000    1.0399367 3.0645241e-05   0.52169193 0.0093767807            0   0.51231515    1.5469059    2.0685978     3.114622 
 6185000    1.0512624 3.4810237e-05   0.52693028  0.018131274            0   0.50879901    1.5637529    2.0906832    3.2788726 
 6190000    1.0960366 -2.9322174e-05   0.49419168  0.023975613            0   0.47021607    1.6303545    2.1245462    1.1236826 
 6195000    1.1087285 1.3792222e-06   0.45953601   0.01893339            0   0.44060262    1.6492337    2.1087697    2.1558471 
 6200000    1.0523492 0.00011796595   0.54943466  0.021712913            0   0.52772175    1.5653695    2.1148041    6.1413754 
 6205000    1.0506245 1.5468002e-05    0.5649209  0.028574516            0   0.53634639     1.562804    2.1277249    2.6556994 
 6210000    1.0984398 -0.00013128019   0.48657243   0.03210089            0   0.45447154    1.6339292    2.1205016   -2.3605289 
 6215000    1.0800846 -9.63089e-05   0.51813675  0.068646149            0    0.4494906    1.6066259    2.1247627   -1.1625811 
 6220000    1.0956814 7.2937406e-05   0.50600334   0.03884865            0   0.46715469    1.6298261    2.1358295    4.6254263 
 6225000    1.0257708 0.00015551506   0.62137953  0.074889353            0   0.54649018     1.525834    2.1472135    7.4554609 
 6230000      1.11146 0.00014713929   0.47360697  0.026887844            0   0.44671912    1.6532968    2.1269037    7.1492582 
 6235000     1.036827 -5.0658272e-05   0.58536957  0.051641615            0   0.53372795    1.5422802    2.1276497   0.39851406 
 6240000    1.0599906 1.204509e-05    0.5785133  0.034950983            0   0.54356232    1.5767361    2.1552494    2.5663884 
 6245000    1.2032668 0.00021237253   0.39303633  0.023025112            0   0.37001122    1.7898594    2.1828957    9.4318779 
 6250000    1.1186239 7.1376762e-05   0.52693556  0.033360977            0   0.49357458     1.663953    2.1908886    4.6272154 
 6255000     1.121898 -9.2946641e-06   0.50672655  0.011208292            0   0.49551826    1.6688233    2.1755499     1.858292 
 6260000    1.0992495 -6.0295828e-05   0.52625701  0.010074339            0   0.51618267    1.6351336    2.1613907   0.10329307 
 6265000    1.1704366 5.569599e-05   0.44284084 0.0067717408            0    0.4360691    1.7410244    2.1838652     4.084955 
 6270000    1.1279268 5.8942136e-05   0.48510417 0.0022757562            0   0.48282841    1.6777912    2.1628953    4.1747869 
 6275000    1.1330004 2.2105632e-05   0.47436836 0.0013448347            0   0.47302352    1.6853381    2.1597064    2.9142453 
 6280000    1.0598609 -0.00012062462   0.59250799 0.0072982755            0   0.58520972    1.5765431    2.1690511   -1.9482692 
 6285000    1.1823723 -4.5991612e-05   0.42909912  0.021103949            0   0.40799517    1.7587788     2.187878   0.61803096 
 6290000    1.1834674 -5.3181798e-05   0.42035629  0.018191134            0   0.40216515    1.7604078    2.1807641   0.36549205 
 6295000    1.1221681 -6.1938585e-05   0.51292993  0.028491179            0   0.48443875     1.669225    2.1821549  0.067984554 
 6300000    1.0921303 1.738377e-05   0.56466348  0.028482481            0     0.536181    1.6245437    2.1892072    2.7825733 
 6305000    1.0949157 -4.7226655e-05   0.52490153 0.0029463124            0   0.52195522    1.6286872    2.1535887   0.54158554 
 6310000    1.0578066 -6.1721084e-05   0.58023047  0.004618002            0   0.57561247    1.5734873    2.1537177  0.046971399 
 6315000    1.0743054 -3.8787125e-05    0.5227094  0.013440307            0   0.50926909    1.5980292    2.1207386   0.79680477 
 6320000     1.128755 9.7936521e-06     0.450276  0.025398936            0   0.42487707    1.6790231    2.1292991    2.4635891 
 6325000    1.0825196 -9.3828754e-06   0.52038773  0.025926577            0   0.49446115    1.6102479    2.1306356    1.8103668 
 6330000    1.0913612 -5.2202395e-05   0.49273454   0.03113574            0    0.4615988    1.6233998    2.1161343   0.33429259 
 6335000    1.0872905 -4.5952052e-05   0.49909557  0.015688023            0   0.48340754    1.6173447    2.1164402   0.54794355 
 6340000    1.1105222 -2.8236321e-05   0.46680363  0.012137981            0   0.45466565    1.6519018    2.1187054    1.1549057 
 6345000    1.1005407 -1.8811868e-05   0.46649761  0.018851553            0   0.44764605    1.6370542    2.1035518    1.4614401 
 6350000    1.0761689 5.2196333e-05     0.516564  0.028655823            0   0.48790818    1.6008012    2.1173652    3.8990001 
 6355000    1.0983346 0.00015131748   0.48803381  0.053763207            0    0.4342706    1.6337728    2.1218066    7.2867764 
 6360000    1.1556361 -2.8199686e-05   0.37379388  0.025278721            0   0.34851516    1.7190086    2.0928025    1.1302532 
 6365000     1.072381 -4.5519757e-05   0.48103235 0.0082450991            0   0.47278725    1.5951667    2.0761991   0.52245801 
 6370000    1.0845968 -0.00012121206   0.45838655 0.0014730536            0    0.4569135    1.6133377    2.0717243   -2.0656474 
 6375000    1.0943808 2.2766063e-05    0.4162532 0.0081266492            0   0.40812655    1.6278914    2.0441446    2.8212263 
 6380000    1.0394163 1.467436e-05   0.47467364  0.040930941            0    0.4337427    1.5461318    2.0208054    2.5216902 
 6385000    1.0688435 -8.7665538e-06   0.42738123  0.028844586            0   0.39853664    1.5899047     2.017286    1.7180543 
 6390000    1.0369558 -2.3645986e-05   0.46170332  0.012769709            0   0.44893362    1.5424717     2.004175    1.1970587 
 6395000    1.0559408 0.0001148133    0.4206997  0.011551057            0   0.40914865    1.5707119    1.9914116    5.9103723 
 6400000    1.0739001 9.3168942e-06   0.39400526  0.023078573            0   0.37092668    1.5974264    1.9914317    2.3094483 
 6405000   0.99453377 -0.00019342077   0.51688793  0.049052867            0   0.46783506     1.479369    1.9962569   -4.6058386 
 6410000     1.094934 0.00011871511    0.3859359  0.055865763            0   0.33007013    1.6287143    2.0146502    6.0667926 
 6415000     1.014108 7.7329701e-05   0.48501998  0.040146153            0   0.44487382    1.5084856    1.9935056     4.633026 
 6420000    1.0131858 -9.5317445e-05   0.48905169  0.030890438            0   0.45816125    1.5071139    1.9961656   -1.2573365 
 6425000    1.0586499 -0.00015666104   0.42032769  0.010006424            0   0.41032127    1.5747417    1.9950694   -3.3522943 
 6430000    1.0606868 -4.6851641e-05   0.41718102 0.0071393582            0   0.41004166    1.5777716    1.9949527   0.39574999 
 6435000    1.1284169 8.0476628e-05   0.36637163 0.0091473016            0   0.35722433    1.6785201    2.0448917    4.7918273 
 6440000     1.066481 1.9428002e-05   0.45859808 0.0078926025            0   0.45070548    1.5863905    2.0449886     2.708131 
 6445000    1.0867323 -0.00012485695   0.42811496  0.018134163            0   0.40998079    1.6165143    2.0446292   -2.2171545 
 6450000    1.1173819 3.018323e-06   0.40837991  0.038254459            0   0.37012546    1.6621056    2.0704855     2.173511 
 6455000    1.0550473 0.00020600665   0.50013659  0.018691304            0   0.48144529    1.5693828    2.0695194    9.1012129 
 6460000    1.0027076 0.00013182262   0.57320614  0.042750591            0   0.53045555    1.4915275    2.0647336     6.564279 
 6465000    1.0630814 -9.5212308e-05   0.51571716  0.021384551            0   0.49433261    1.5813337    2.0970508   -1.1528626 
 6470000    1.1311857 -7.0030639e-05    0.3867949  0.003288181            0   0.38350672    1.6826387    2.0694336  -0.32094549 
 6475000    1.0481731 -1.5564928e-05   0.50754492 0.0052214211            0    0.5023235    1.5591575    2.0667024    1.5354195 
 6480000    1.0796451 -5.3587182e-05   0.44134611  0.013895746            0   0.42745036     1.605972    2.0473181   0.21820901 
 6485000    1.0751713 -3.3133761e-06   0.44802779  0.033934867            0   0.41409292    1.5993174    2.0473452    1.9342486 
 6490000    1.0789425 0.00014085702   0.45645457  0.056734571            0      0.39972     1.604927    2.0613815    6.8693012 
 6495000    1.0611456 6.1884607e-05   0.48944911  0.046091144            0   0.44335796    1.5784541    2.0679032    4.1802311 
 6500000    1.0115577 -5.1475465e-05   0.55733121  0.074019937            0   0.48331127     1.504692    2.0620232   0.30499403 
 6505000    1.0805535 2.7170092e-05   0.45314012  0.037226287            0   0.41591383    1.6073233    2.0604634    2.9878692 
 6510000    1.0766442 9.712879e-05    0.4341529  0.023019668            0   0.41113323    1.6015082    2.0356611    5.3509905 
 6515000    1.0493724 9.7442443e-05   0.48280039  0.014328251            0   0.46847213    1.5609415    2.0437419    5.3697773 
 6520000    1.0584445 -1.3902135e-05   0.45267065  0.020502899            0   0.43216775    1.5744363    2.0271069    1.5525807 
 6525000    1.0327169 -5.2441504e-05   0.48664667  0.013634492            0   0.47301218    1.5361664    2.0228131   0.23280973 
 6530000    1.0912108 -4.1520291e-05   0.39906517 0.0052644355            0   0.39380073    1.6231761    2.0222413   0.60501536 
 6535000   0.99596165 -9.6118302e-05    0.5275156 0.0046550933            0   0.52286051     1.481493    2.0090086   -1.2718295 
 6540000     1.060363 -0.00013789513   0.41342751  0.009423959            0   0.40400355      1.57729    1.9907175   -2.7161028 
 6545000    1.0714074 -4.9793263e-05   0.37859916 0.0096340817            0   0.36896507    1.5937186    1.9723177   0.27270766 
 6550000    1.0106159 -1.5344504e-05   0.47416378  0.016990569            0   0.45717321    1.5032912     1.977455    1.4536959 
 6555000    1.0415061 -0.00011583397   0.43184905  0.005182623            0   0.42666643    1.5492403    1.9810894   -1.9727102 
 6560000    1.0694549 -9.4945577e-05   0.39505014 0.0070233942            0   0.38802675    1.5908142    1.9858643   -1.2549447 
 6565000    1.0153729 6.626325e-05   0.48114221  0.019046763            0   0.46209545    1.5103672    1.9915094     4.253295 
 6570000    1.0314463 -9.183399e-06   0.47234916   0.03561176            0    0.4367374    1.5342764    2.0066255    1.6931655 
 6575000   0.99514734 -0.00013126686   0.52392766  0.011868227            0   0.51205943    1.4802817    2.0042093   -2.4763662 
 6580000    1.0620798 6.3883505e-05   0.41749747  0.025497368            0    0.3920001    1.5798437    1.9973412    4.1778981 
 6585000    1.0971847 0.00022718845    0.3928452  0.025068967            0   0.36777623    1.6320622    2.0249074    9.7796065 
 6590000     1.064893 8.7102866e-05   0.44912671  0.015439369            0   0.43368734    1.5840284    2.0331551    5.0062663 
 6595000    1.1142297 -5.4166554e-05   0.38950813  0.022247018            0   0.36726111    1.6574166    2.0469248   0.19803971 
 6600000    1.1024608 -0.00012056733   0.42310585  0.031525882            0   0.39157997    1.6399104    2.0630162   -2.0523485 
 6605000    1.0776079 -8.3492125e-05   0.43375169  0.029821066            0   0.40393062    1.6029418    2.0366935  -0.81317107 
 6610000    1.0743555 5.034047e-06   0.43569381  0.017383461            0   0.41831035    1.5981038    2.0337976    2.2056264 
 6615000    1.0481413 5.2471319e-05   0.47380452  0.026087028            0   0.44771749    1.5591101    2.0329146    3.8239357 
 6620000     1.079143 3.2916923e-05    0.4164507  0.020936002            0    0.3955147    1.6052252    2.0216759    3.1452402 
 6625000    1.0257748 2.9801543e-05   0.47601865  0.069895275            0   0.40612337    1.5258401    2.0018587    3.0190847 
 6630000     1.013424 -2.6576394e-06   0.50219077  0.010273649            0   0.49191712    1.5074681    2.0096589    1.9189448 
 6635000    1.0792803 -3.3823839e-06   0.44759335  0.024391356            0   0.42320199    1.6054294    2.0530227    1.9375707 
 6640000    1.0573271 -9.8667581e-05   0.47146111  0.019421406            0    0.4520397    1.5727741    2.0442352   -1.3236182 
 6645000    1.1008716 -6.2848805e-05   0.41801194  0.019348565            0   0.39866337    1.6375465    2.0555584 -0.089680803 
 6650000    1.0865885 0.00012044008   0.43730661  0.043744018            0   0.39356259    1.6163004     2.053607    6.1646286 
 6655000    1.0545562 0.00012654867   0.47579462  0.023945406            0   0.45184921    1.5686524     2.044447    6.3639749 
 6660000    1.0423916 2.6844037e-05   0.46178227  0.024161516            0   0.43762076    1.5505574    2.0123397    2.9286162 
 6665000     1.090087 -7.649079e-05   0.42459872  0.016631319            0    0.4079674    1.6215045    2.0461032  -0.56478245 
 6670000    1.0669902 -0.00013100296   0.46525304 0.0032447974            0   0.46200824     1.587148     2.052401   -2.4191669 
 6675000    1.0301247 -6.8708588e-05   0.51428485 0.0034759306            0   0.51080892    1.5323105    2.0465953   -0.2986578 
 6680000    1.0405915 4.1528818e-05   0.49527197  0.019357364            0   0.47591461    1.5478798    2.0431518    3.4606688 
 6685000     1.053072 0.00020719709    0.4849236  0.031288717            0   0.45363488    1.5664446    2.0513682    9.1236955 
 6690000    1.0744635 0.00019482099   0.44938781  0.018683393            0   0.43070442    1.5982644    2.0476522    8.6975421 
 6695000     1.092438 0.00011836558   0.41782671  0.012197712            0     0.405629    1.6250015    2.0428282      6.08304 
 6700000    1.1042107 -2.4766038e-05   0.40092957  0.011920397            0   0.38900917    1.6425135     2.043443    1.1980956 
 6705000    1.0142299 -5.4920159e-05    0.5424086  0.044645141            0   0.49776346    1.5086669    2.0510755   0.17646746 
 6710000    1.0470926 9.8357383e-05   0.49450254  0.022253151            0   0.47224939    1.5575503    2.0520528    5.4093181 
 6715000    1.0384669 0.00011259668   0.46857935   0.01108012            0   0.45749923    1.5447195    2.0132989    5.8565988 
 6720000   0.99617839 -2.4908545e-06   0.50615279 0.0070639449            0   0.49908885    1.4818153    1.9879681     1.902947 
 6725000    1.0611976 -1.4780959e-05   0.42949805  0.014142711            0   0.41535533    1.5785315    2.0080295    1.5035062 
 6730000   0.98585162 5.8537155e-05   0.56007095   0.04019235            0   0.51987861    1.4664543    2.0265252    4.0245935 
 6735000    1.0050166 5.3157462e-05   0.51207792  0.026349719            0    0.4857282    1.4949622    2.0070401    3.8214815 
 6740000    1.0572057 5.9152107e-05   0.42549293  0.019129672            0   0.40636326    1.5725934    1.9980864    4.0171449 
 6745000   0.99847477 -8.8558624e-06   0.49012563  0.051727216            0   0.43839841    1.4852312    1.9753568    1.6730767 
 6750000    1.0020944 -7.2116002e-05   0.45325227 0.0085440921            0   0.44470818    1.4906155    1.9438677   -0.5176918 
 6755000   0.97308165 2.3959048e-05   0.51004114  0.001598105            0   0.50844304     1.447459    1.9575001    2.7753023 
 6760000    0.9918707 2.2850881e-05   0.48381216  0.002746133            0   0.48106603    1.4754077    1.9592198    2.7391966 
 6765000   0.96433681 4.4035513e-05   0.50505622  0.016341336            0   0.48871488     1.434451    1.9395072    3.4425861 
 6770000   0.98568645 5.046919e-05   0.47954892  0.010989579            0   0.46855934    1.4662086    1.9457575    3.6684392 
 6775000   0.97077212 4.7668096e-05   0.48941778  0.010932221            0   0.47848556    1.4440235    1.9334413    3.5605123 
 6780000   0.97058888 3.352747e-05   0.51209124  0.033296333            0   0.47879491     1.443751    1.9558422    3.1002465 
 6785000   0.96098882 -2.0404337e-05   0.51226893  0.018432927            0     0.493836    1.4294709    1.9417398    1.2452717 
 6790000   0.96710967 -8.3625699e-06   0.51519228  0.035919836            0   0.47927245    1.4385756    1.9537679    1.6683255 
 6795000    1.0037663 -4.988276e-05   0.46887495  0.027253152            0    0.4416218    1.4931024    1.9619773   0.25931242 
 6800000   0.96560671 -8.9376595e-05   0.53895232  0.029295504            0   0.50965681      1.43634    1.9752923   -1.0754288 
 6805000    1.0193609 -4.1692944e-05   0.43295836  0.017581471            0   0.41537689    1.5162993    1.9492577   0.52613855 
 6810000   0.93262911 -9.9357458e-05   0.55381386 0.0079113845            0   0.54590247    1.3872858    1.9410997   -1.4503016 
 6815000    1.0418427 9.4470673e-05   0.39964469  0.013251383            0   0.38639331     1.549741    1.9493857    5.1739846 
 6820000      1.00966 0.0001909274   0.49131673 0.0059279729            0   0.48538876    1.5018693     1.993186    8.5101746 
 6825000    1.0451772 0.00011367123    0.4322407 0.0071927145            0   0.42504799     1.554701    1.9869417    5.8669196 
 6830000   0.99470013 -7.9104821e-05   0.50633241  0.024412416            0      0.48192    1.4796164    1.9859489  -0.71416236 
 6835000    0.9737181 -7.9892895e-05   0.52940148  0.027827907            0   0.50157357    1.4484057    1.9778072  -0.74920368 
 6840000   0.99604344 -1.5300048e-05   0.48309816  0.028535149            0   0.45456301    1.4816146    1.9647128    1.4424711 
 6845000    1.0069881 1.2186995e-05   0.44338412 0.0092324958            0   0.43415162    1.4978947    1.9412789    2.3572616 
 6850000   0.99445311 6.0892373e-05   0.46004189  0.000579194            0   0.45946269     1.479249    1.9392909    4.0177505 
 6855000   0.99645255 3.9398192e-06   0.45876833 0.0014869943            0   0.45728134    1.4822232    1.9409915    2.0754707 
 6860000   0.97746496 5.0119223e-05   0.51169064 0.0038592673            0   0.50783138    1.4539791    1.9656698    3.6764059 
 6865000    1.0106348 9.2979051e-05   0.46056172 0.0061872545            0   0.45437446    1.5033192    1.9638809    5.1375659 
 6870000   0.97319348 -1.0442797e-05   0.48230827   0.02532289            0   0.45698538    1.4476253    1.9299336    1.5734861 
 6875000   0.99009732 -3.516949e-05   0.41225872   0.01050438            0   0.40175434    1.4727698    1.8850285   0.68457656 
 6880000   0.94062388 -1.7759297e-05   0.51618433  0.012961154            0   0.50322317     1.399178    1.9153624    1.3091783 
 6885000    1.0035265 -8.4049412e-05   0.43336659  0.012178552            0   0.42118804    1.4927456    1.9261122  -0.94277439 
 6890000    1.0038293 -4.4769596e-05   0.43350974  0.040695809            0   0.39281393    1.4931961    1.9267059   0.39857032 
 6895000    1.0299171 6.7024942e-05   0.38003184  0.020657022            0   0.35937482    1.5320017    1.9120336    4.1998183 
 6900000   0.95305279 3.7559221e-06   0.49279197 0.0029583076            0   0.48983366     1.417666     1.910458    2.0386601 
 6905000   0.95102292 4.138734e-06   0.49634881  0.013355312            0    0.4829935    1.4146466    1.9109954    2.0522642 
 6910000   0.99571242 4.5200662e-05   0.44243198  0.011706061            0   0.43072592    1.4811222    1.9235542    3.4664035 
 6915000   0.93377913 4.0821552e-05   0.52835579  0.017681655            0   0.51067413    1.3889964    1.9173522    3.3107279 
 6920000   0.98918947 3.7596679e-05    0.4492053  0.010374438            0   0.43883086    1.4714193    1.9206246    3.2039246 
 6925000   0.97966464 -9.8111932e-06   0.46575947 0.0041540084            0   0.46160546    1.4572512    1.9230106    1.5881219 
 6930000   0.95037455 2.9401247e-05   0.53001211  0.013697703            0   0.51631441    1.4136821    1.9436943    2.9472568 
 6935000    1.0656939 1.5225622e-05   0.39137932  0.017351522            0    0.3740278    1.5852197     1.976599    2.4963003 
 6940000     1.016531 -0.00014147767   0.44387036  0.010202145            0   0.43366821    1.5120898    1.9559602   -2.8731442 
 6945000    1.0362515 -0.00020407066   0.43137361 0.0051370001            0   0.42623661    1.5414241    1.9727977   -4.9928143 
 6950000   0.96316015 -3.9630202e-05   0.53638103 0.0030217074            0   0.53335932    1.4327007    1.9690818   0.61637086 
 6955000   0.96825531 3.3017529e-05   0.48314325  0.020527186            0   0.46261606    1.4402798     1.923423    3.0504214 
 6960000   0.98442399 -9.070339e-05   0.47470669  0.013136382            0   0.46157031    1.4643307    1.9390374   -1.1569717 
 6965000    1.0066292 -8.078438e-05   0.44511161  0.022135809            0    0.4229758    1.4973609    1.9424726  -0.81496761 
 6970000   0.96377803 1.4678213e-05   0.49879888  0.038577997            0   0.46022088    1.4336198    1.9324187     2.433435 
 6975000    1.0047787 4.3840931e-05   0.45806672  0.022303412            0   0.43576331    1.4946083     1.952675    3.4491121 
 6980000    1.0265847 7.778243e-05   0.40746628 0.0092839471            0   0.39818233    1.5270448    1.9345111    4.5894847 
 6985000   0.97368398 7.9295709e-05   0.49516443   0.01858342            0   0.47658101    1.4483549    1.9435194    4.6501462 
 6990000   0.96618087 -0.00011794153   0.48886366  0.023261121            0   0.46560253     1.437194    1.9260577   -2.0996797 
 6995000   0.95411699 -9.1940343e-05   0.49302982  0.036086688            0   0.45694313     1.419249    1.9122788   -1.2259515 
 7000000   0.93179201 1.6206978e-05   0.53234279  0.034932704            0   0.49741008    1.3860406    1.9183834    2.4715816 
 7005000   0.99421949 9.0550225e-06   0.44572424  0.011556804            0   0.43416744    1.4789015    1.9246257    2.2337038 
 7010000   0.94330432 5.6789704e-06    0.5299444 0.0062395878            0   0.52370481    1.4031652    1.9331096    2.1269518 
 7015000    0.9517939 8.9333287e-06   0.51022223 0.0028053529            0   0.50741687    1.4157934    1.9260156    2.2309399 
 7020000    1.0529961 -8.190047e-05   0.38934883 0.0073961794            0   0.38195265    1.5663317    1.9556805  -0.83985556 
 7025000   0.99101941 -9.5793134e-05   0.48323086   0.02724888            0   0.45598198    1.4741414    1.9573722   -1.3123667 
 7030000     1.006995 -9.2526222e-06   0.46340149  0.012719078            0   0.45068242     1.497905    1.9613065    1.6454837 
 7035000    0.9846559 1.8772144e-07    0.5098729  0.010329905            0     0.499543    1.4646756    1.9745485    1.9809561 
 7040000    1.0376398 -4.7241747e-05    0.4238068  0.023812817            0   0.39999398    1.5434893    1.9672961   0.35477777 
 7045000    1.0575903 -8.8595198e-05   0.41190177 0.0066261648            0   0.40527561    1.5731656    1.9850674    -1.038982 
 7050000    1.0479364 8.3555709e-05   0.42366868 0.0071288664            0   0.41653981    1.5588054    1.9824741    4.8345089 
 7055000    1.0370786 0.00010759881   0.43591912  0.018518924            0    0.4174002    1.5426544    1.9785736    5.6512797 
 7060000    1.0064178 -0.00015858804    0.5024804  0.013120476            0   0.48935992    1.4970465    1.9995269   -3.4136117 
 7065000    1.0135753 -2.0861182e-05   0.46696804   0.04493145            0   0.42203659    1.5076933    1.9746613    1.2625997 
 7070000   0.99105701 9.317275e-05   0.51714452  0.040748451            0   0.47639607    1.4741973    1.9913418    5.1716383 
 7075000    1.0245329 0.00014852972   0.48586016  0.061731672            0   0.42412848    1.5239927    2.0098528    7.0796674 
 7080000    1.0022858 8.8856207e-05   0.50124822  0.034799843            0   0.46644837    1.4909001    1.9921483    5.0251069 
 7085000   0.96477202 -7.0757064e-05   0.54258651  0.050706234            0   0.49188028    1.4350984    1.9776849  -0.43748956 
 7090000    1.0404691 -0.00011310174   0.46198141   0.03287105            0   0.42911036    1.5476977    2.0096791   -1.8508603 
 7095000    1.0105757 -0.00010180419   0.52456394  0.013205898            0   0.51135804    1.5032313    2.0277953   -1.4471211 
 7100000   0.98177084 3.2811555e-06   0.55719438  0.037306891            0   0.51988748    1.4603841    2.0175785    2.1295753 
 7105000    1.0439937 2.0684763e-05   0.46172949  0.013724212            0   0.44800528    1.5529406    2.0146701      2.72071 
 7110000    1.0150438 -1.3198182e-05    0.5001319  0.023655237            0   0.47647666    1.5098776    2.0100095    1.5595116 
 7115000    1.0268792 6.3017685e-05    0.4889102 0.0044001003            0    0.4845101    1.5274829    2.0163931    4.1673967 
 7120000     1.056481 7.1721448e-05   0.45978382 0.0053567152            0    0.4544271    1.5715155    2.0312993    4.4793914 
 7125000    1.0233389 -3.9424388e-05   0.51466912  0.021443912            0   0.49322521    1.5222167    2.0368858   0.69120001 
 7130000    1.0556078 -3.9263617e-05   0.48331636  0.016671205            0   0.46664516    1.5702166    2.0535329    0.7133348 
 7135000    1.0249024 0.00012694977   0.53422399 0.0052735214            0   0.52895047    1.5245423    2.0587663     6.391985 
 7140000    1.1062828 8.1816518e-05   0.43505602 0.0011207339            0   0.43393529    1.6455957    2.0806517    4.8733222 
 7145000    1.1155514 -4.3064545e-05   0.42341223 0.0015168352            0    0.4218954    1.6593827    2.0827949   0.61285846 
 7150000    1.0783716 -1.6236476e-05   0.47029138 0.0046960422            0   0.46559534    1.6040778    2.0743691    1.5201641 
 7155000    1.0351735 -4.0787068e-05   0.55039384  0.018115661            0   0.53227818    1.5398206    2.0902144   0.69801586 
 7160000    1.0506758 -0.00013697659   0.51125559  0.025940676            0   0.48531491    1.5628802    2.0741358   -2.6013319 
 7165000     1.085461 -2.7094293e-05   0.45519442  0.034137392            0   0.42105702    1.6146233    2.0698177    1.1449991 
 7170000    1.1114524 6.8019602e-05   0.38540279  0.011335916            0   0.37406688    1.6532854    2.0386882    4.3604239 
 7175000    1.1323054 1.8127417e-05     0.414621  0.007134162            0   0.40748683    1.6843043    2.0989253    2.7176745 
 7180000    1.0699221 3.591029e-05    0.5253269 0.0071282294            0   0.51819867    1.5915091     2.116836    3.3425739 
 7185000    1.0684051 -6.1728377e-05    0.5175379  0.011039317            0   0.50649859    1.5892526    2.1067905 -0.00020474208 
 7190000    1.0678165 -8.2957119e-05   0.51063154  0.037686455            0   0.47294508     1.588377    2.0990085  -0.73259446 
 7195000    1.0819421 -7.7386113e-05   0.50986445 0.0077752922            0   0.50208916    1.6093889    2.1192533  -0.52219267 
 7200000    1.1097649 -0.00010672226   0.46624593  0.011896072            0   0.45434986    1.6507753    2.1170213   -1.5257652 
 7205000    1.0742161 7.578742e-05   0.49400049  0.012956704            0   0.48104378    1.5978965     2.091897    4.6787743 
 7210000    1.0934771 0.00010154512    0.4803337 0.0066559546            0   0.47367775    1.6265472    2.1068809    5.5729544 
 7215000     1.089793 -0.0001368513   0.49081199  0.018764078            0   0.47204791    1.6210671    2.1118791    -2.559312 
 7220000    1.0642417 -0.0001713268   0.51899892   0.02171927            0   0.49727965    1.5830595    2.1020584   -3.7458964 
 7225000    1.1460293 -0.00010627492   0.40892115  0.004850997            0   0.40407015    1.7047186    2.1136397   -1.5138776 
 7230000    1.0645489 -0.00019994359   0.51717738 0.0031392392            0   0.51403814    1.5835165    2.1006938   -4.7240475 
 7235000    1.0830565 -0.00017036836   0.49361709  0.020728672            0   0.47288842    1.6110465    2.1046636   -3.7105763 
 7240000    1.0668576 -3.7720184e-05   0.52101728     0.028453            0   0.49256428    1.5869507     2.107968   0.82045235 
 7245000    1.0784677 -5.9860735e-05   0.48274239  0.036049368            0   0.44669303    1.6042207    2.0869631  0.043716659 
 7250000    1.0672968 2.4598201e-05   0.47073611  0.069941873            0   0.40079424     1.587604    2.0583402    2.8979588 
 7255000    1.0603988 -8.2490203e-05   0.46940067  0.049093538            0   0.42030713    1.5773433    2.0467439  -0.76892167 
 7260000    1.0731787 -0.00015381274   0.44549913  0.062423837            0   0.38307529    1.5963533    2.0418524   -3.2082889 
 7265000    1.0698854 -0.00010820033   0.45313154  0.010091725            0   0.44303982    1.5914546    2.0445861    -1.648652 
 7270000    1.0125474 -2.0723053e-05   0.53092831  0.022044233            0   0.50888407    1.5061642    2.0370925    1.3297456 
 7275000    1.0198429 -6.5756231e-05   0.53686947  0.043604916            0   0.49326455    1.5170164    2.0538858  -0.19059353 
 7280000    1.0080769 -0.00010872013   0.55478038   0.04344502            0   0.51133536    1.4995143    2.0542947   -1.6566857 
 7285000     1.031495 0.00017783172   0.52923447  0.014403298            0   0.51483117    1.5343488    2.0635832    8.1335725 
 7290000    1.0536666 3.732895e-05   0.50513214   0.03807227            0   0.46705987     1.567329    2.0724612    3.3466227 
 7295000    1.0623197 -0.00012349795   0.49224243  0.032176262            0   0.46006617    1.5802006     2.072443   -2.1429537 
 7300000    1.0577068 -4.5314451e-05   0.48105883  0.035503076            0   0.44555576    1.5733389    2.0543978    0.5076645 
 7305000   0.98554254 -5.9132396e-05   0.59587376  0.046919402            0   0.54895436    1.4659945    2.0618683  0.043482498 
 7310000    1.0105024 -6.0525301e-05   0.55242594  0.013060059            0   0.53936588    1.5031224    2.0555483 -0.010381954 
 7315000    1.0601487 -0.00012983087   0.46469349  0.026085099            0   0.43860839    1.5769712    2.0416647   -2.3898957 
 7320000   0.99473432 -0.00018205282   0.57189092  0.020662113            0   0.55122881    1.4796673    2.0515582   -4.1625113 
 7325000    1.0113577 -2.185936e-05   0.54152194  0.025762785            0   0.51575915    1.5043946    2.0459165    1.2997837 
 7330000    1.0609286 0.00012435638   0.47760506  0.019221131            0   0.45838393    1.5781314    2.0557364    6.3004343 
 7335000    1.1209779 1.3911632e-05   0.41347225   0.01023023            0   0.40324202    1.6674546    2.0809269    2.5557773 
 7340000    1.0302657 -3.7161673e-05   0.52781733  0.018802411            0   0.50901492    1.5325202    2.0603375   0.79188575 
 7345000     1.085498 7.8131901e-05   0.42783053  0.028875672            0   0.39895486    1.6146783    2.0425088    4.7094111 
 7350000   0.95546421 -2.7673443e-05   0.57392924  0.019501138            0    0.5544281     1.421253    1.9951823    1.0505954 
 7355000    1.0279486 -1.5870022e-05   0.48161929  0.072060066            0   0.40955922    1.5290735    2.0106928    1.4689961 
 7360000     1.032346 -0.00022412506   0.44947027  0.027194999            0   0.42227527    1.5356147     1.985085   -5.6650504 
 7365000   0.92464656 -0.00018876355   0.60950681  0.035031514            0    0.5744753    1.3754118    1.9849186   -4.4582107 
 7370000   0.98102475 -0.00012242074   0.53501743  0.029883491            0   0.50513394    1.4592743    1.9942917   -2.1843363 
 7375000    1.0318241 -2.3260126e-05   0.46150712  0.052052307            0   0.40945481    1.5348383    1.9963454    1.2023998 
 7380000    1.0428625 -3.3137613e-05   0.43087895  0.029367161            0   0.40151179     1.551258    1.9821369   0.85103973 
 7385000   0.96140316 3.0041444e-05    0.5634846 0.0076062255            0   0.55587837    1.4300872    1.9935718    3.0189864 
 7390000   0.98547602 5.9821438e-05   0.53863493  0.011665367            0   0.52696957    1.4658956    2.0045305    4.0464356 
 7395000   0.96213689 -0.00011224921   0.56833783  0.050292746            0   0.51804509    1.4311786    1.9995165   -1.8319232 
 7400000    1.0138088 -4.8948198e-05   0.47996243  0.056173878            0   0.42378855    1.5080405    1.9880029   0.31723781 
 7405000   0.99094463 5.180974e-05   0.52200424  0.046962595            0   0.47504165    1.4740301    1.9960344    3.7644735 
 7410000   0.99719956 -4.9904481e-05   0.51054592  0.027005774            0   0.48354015    1.4833343    1.9938803   0.29047398 
 7415000    1.0460264 -0.00014476752   0.44477356  0.010625519            0   0.43414805    1.5559642    2.0007378   -2.9406603 
 7420000   0.96984907 -6.0664421e-05   0.54738849  0.011254388            0    0.5361341    1.4426505     1.990039 -0.080639944 
 7425000    0.9599367 -1.3451594e-05   0.54461225  0.015562041            0   0.52905021    1.4279058    1.9725181    1.5133704 
 7430000   0.99442659 0.00012534864   0.50724009  0.008224946            0   0.49901515    1.4792096    1.9864497    6.2650165 
 7435000    1.0232756 -3.4101703e-05   0.48422504  0.011920128            0   0.47230491    1.5221224    2.0063475   0.84234267 
 7440000    1.0308794 -5.6517234e-06   0.47762116  0.042436963            0    0.4351842    1.5334331    2.0110542    1.8181421 
 7445000    1.0328288 -1.056422e-05   0.47956483  0.028845911            0   0.45071892    1.5363329    2.0158977    1.6553057 
 7450000    1.0215623 -7.1225111e-05   0.50905263  0.020571867            0   0.48848076    1.5195739    2.0286265  -0.40252396 
 7455000    1.0320367 -4.5681897e-05   0.49564046  0.022140822            0   0.47349964    1.5351546    2.0307951   0.47151969 
 7460000    1.0114545 -0.00013734139   0.52604548  0.034333663            0   0.49171182    1.5045386     2.030584   -2.6573353 
 7465000    1.0007689 8.7428356e-05   0.55964022  0.068644095            0   0.49099612    1.4886437    2.0482839    5.0325051 
 7470000     1.042509 0.00010898262   0.50823492  0.024246373            0   0.48398855    1.5507322    2.0589671    5.7789073 
 7475000    1.0530132 3.588258e-05   0.49205546 0.0087261986            0   0.48332926    1.5663572    2.0584126    3.2832047 
 7480000   0.99914852 7.753399e-05   0.57546864  0.020795416            0   0.55467323    1.4862334    2.0617021    4.7081956 
 7485000    1.0573053 -6.2299706e-05   0.51420613  0.024779679            0   0.48942645    1.5727416    2.0869477 -0.039548893 
 7490000    1.0822471 -5.0379991e-05   0.46620093 0.0059165524            0   0.46028437    1.6098425    2.0760435   0.35640644 
 7495000    1.0178073 -5.6738037e-05   0.57388162  0.011492034            0   0.56238958    1.5139883    2.0878699   0.15121162 
 7500000    1.0776785 -1.4570608e-05   0.49343319  0.001589262            0   0.49184393    1.6030468      2.09648    1.5991366 
 7505000    1.1403762 4.7733537e-05   0.43569595 0.0032530368            0   0.43244291    1.6963095    2.1320055    3.7613102 
 7510000    1.1025936 -1.7047362e-05   0.47891747 0.0071081107            0   0.47180936    1.6401081    2.1190255    1.5371422 
 7515000    1.1298509 -0.00011119054   0.43558151  0.017702784            0   0.41787873    1.6806532    2.1162347   -1.6790691 
 7520000    1.0669263 4.6098185e-05    0.5352383  0.031820223            0   0.50341807    1.5870528    2.1222911    3.6957758 
 7525000    1.0715778 -6.8505728e-06   0.53309771  0.053400853            0   0.47969685     1.593972    2.1270697    1.8932368 
 7530000    1.0883747 -2.2309973e-05   0.51970885  0.018430334            0   0.50127852    1.6189574    2.1386663    1.3771525 
 7535000    1.0834686 -1.8663349e-05   0.51063486 0.0065875732            0   0.50404728    1.6116596    2.1222944    1.4852521 
 7540000    1.1473899 -2.4137012e-06   0.41831336 0.0046488114            0   0.41366455    1.7067424    2.1250558    2.0426681 
 7545000    1.0839081 6.0138702e-05   0.50854701 0.0046100984            0   0.50393691    1.6123133    2.1208603    4.1735947 
 7550000    1.1042187 1.2518704e-05   0.47553064 0.0084059039            0   0.46712473    1.6425253    2.1180559     2.545361 
 7555000    1.0972556 2.9443685e-05   0.47651527  0.016420761            0   0.46009451    1.6321677     2.108683    3.1136941 
 7560000    1.0180276 8.585426e-05   0.59897227  0.022952171            0    0.5760201    1.5143161    2.1132883    5.0437804 
 7565000    1.0439473 -1.4591402e-05    0.5494136  0.029630632            0   0.51978297    1.5528717    2.1022853    1.6042321 
 7570000    1.0249742 -3.8926241e-05   0.56624771  0.014791702            0   0.55145601    1.5246491    2.0908968   0.76221445 
 7575000    1.1430442 1.9827207e-05   0.41880482 0.0012494637            0   0.41755536    1.7002783    2.1190831    2.7958518 
 7580000    1.1034416 -2.5973506e-06   0.47718979 0.0054290029            0   0.47176078    1.6413694    2.1185592     2.029903 
 7585000    1.0500769 -4.3105753e-05   0.55133222  0.027095281            0   0.52423694    1.5619894    2.1133216   0.64197855 
 7590000    1.0700513 -1.828849e-05   0.52346083  0.028933483            0   0.49452734    1.5917013    2.1151621     1.490915 
 7595000    1.0639107 0.00010586935   0.53889596 0.0065088155            0   0.53238715    1.5825671    2.1214631    5.7351368 
 7600000     1.111031 1.1594835e-07   0.48224071  0.021826249            0   0.46041447    1.6526586    2.1348993     2.138857 
 7605000      1.10796 -7.1997087e-05   0.49227309  0.033390842            0   0.45888225    1.6480905    2.1403636  -0.31713696 
 7610000    1.0713004 -5.3970468e-05   0.56651614  0.044644331            0    0.5218718    1.5935593    2.1600754   0.31788346 
 7615000    1.1148968 -0.00014694294   0.49160958  0.027952786            0   0.46365679     1.658409    2.1500186   -2.8656338 
 7620000    1.1166773 -1.0775643e-05   0.46630473  0.013578684            0   0.45272604    1.6610575    2.1273622    1.7595536 
 7625000    1.0574398 -9.2469409e-06   0.55956723  0.017129196            0   0.54243804    1.5729418     2.132509    1.8168801 
 7630000    1.1115584 -5.0108057e-05   0.49097912 0.0060315504            0   0.48494757    1.6534431    2.1444222   0.43406717 
 7635000    1.1276429 5.0021836e-05   0.46775186  0.014435655            0    0.4533162    1.6773688    2.1451206    3.8525326 
 7640000    1.0692218 0.00014284322   0.53963316  0.077065795            0   0.46256737    1.5904674    2.1301006    7.0058157 
 7645000    1.0651619 0.00011578352   0.54213979  0.035371891            0    0.5067679    1.5844284    2.1265682    6.0786456 
 7650000    1.0896362 -0.00011213141   0.49701971  0.014242708            0     0.482777    1.6208339    2.1178536   -1.7095652 
 7655000    1.1296717 -8.3333462e-05   0.44746584  0.022975327            0   0.42449051    1.6803867    2.1278525  -0.71659632 
 7660000      1.12103 3.4300759e-05   0.46894624  0.013003305            0   0.45594294    1.6675321    2.1364783    3.3072776 
 7665000    1.0852302 -5.0955866e-05   0.52997705 0.0091629377            0   0.52081412    1.6142799    2.1442569   0.40496337 
 7670000    1.0704488 3.6874472e-05   0.55306791 0.0090928369            0   0.54397507    1.5922926    2.1453605    3.4040091 
 7675000    1.1737109 -0.00010140089     0.385027    0.0134295            0    0.3715975    1.7458949    2.1309219   -1.3302284 
 7680000    1.1479166 2.0659532e-05   0.43810543  0.018362266            0   0.41974317    1.7075259    2.1456314    2.8508101 
 7685000    1.0744854 0.00022761164    0.5720196  0.022125082            0   0.54989452     1.598297    2.1703166    9.9394606 
 7690000    1.1081942 1.3667442e-05   0.51283682 0.0062213029            0   0.50661552    1.6484388    2.1612757     2.627791 
 7695000    1.1928575 -1.191342e-05    0.3991805 0.0061179758            0   0.39306253    1.7743756    2.1735561    1.7669114 
 7700000    1.1863475 -5.939157e-06   0.40722591 0.0081830842            0   0.39904283    1.7646919    2.1719178    1.9691946 
 7705000    1.1097251 0.00012267558   0.53662176 0.0038374353            0   0.53278432    1.6507161    2.1873379    6.3746642 
 7710000    1.1093244 2.5709767e-05    0.5384495 0.0087704096            0   0.52967909      1.65012    2.1885695    3.0661296 
 7715000    1.1495288 -0.00012121242   0.49349045   0.04328798            0   0.45020247    1.7099241    2.2034146   -1.9339694 
 7720000     1.165545 0.00015919421   0.43844502  0.032260992            0   0.40618402    1.7337483    2.1721933    7.6060222 
 7725000    1.0835362 -6.1027832e-05   0.56013931  0.027244731            0   0.53289458    1.6117601    2.1718994  0.088816051 
 7730000    1.1647642 -7.1902605e-05   0.43324093 0.0076679369            0   0.42557299    1.7325867    2.1658277  -0.28844789 
 7735000    1.1315029 -5.8849716e-05   0.48555843  0.010885505            0   0.47467292    1.6831105    2.1686689   0.15993197 
 7740000    1.1152346 -5.2881965e-05   0.51017391  0.016935531            0   0.49323837    1.6589114    2.1690853   0.36404759 
 7745000    1.0860583 -9.7739974e-05   0.53255195  0.034368328            0   0.49818362    1.6155117    2.1480637   -1.1881274 
 7750000    1.1099381 -6.5947251e-05   0.54863107  0.059999803            0   0.48863127    1.6510329     2.199664 -0.051335523 
 7755000    1.0922422 0.00012318869   0.52262484  0.019162247            0   0.50346259    1.6247103    2.1473351    6.3521756 
 7760000    1.1051591 5.4430014e-05   0.49608573 0.0067776974            0   0.48930804    1.6439242    2.1400099    3.9978877 
 7765000    1.1199803 -1.3471392e-05   0.46969817     0.016545            0   0.45315317    1.6659706    2.1356688    1.6758453 
 7770000    1.1256036 -0.00014371456   0.47808574  0.030800655            0   0.44728508    1.6743353    2.1524211    -2.753036 
 7775000    1.0893573 -1.3067953e-05   0.49825434  0.023931015            0   0.47432332     1.620419    2.1186733    1.6726205 
 7780000    1.0737805 1.7456243e-05   0.50713708 0.0062094116            0   0.50092766    1.5972485    2.1043856    2.7002253 
 7785000    1.0888515 -6.4911957e-05    0.4600918 0.0029827022            0    0.4571091    1.6196666    2.0797584  -0.13590311 
 7790000    1.1571987 3.4774469e-05   0.38362751 0.00062311498            0   0.38300439    1.7213331    2.1049606    3.2919292 
 7795000    1.0838793 -6.5279431e-05   0.49349045 0.00045777708            0   0.49303267    1.6122704    2.1057609  -0.12244369 
 7800000     1.120111 1.8999627e-05   0.43796401 0.0049546399            0   0.43300937    1.6661651    2.1041291    2.7526497 
 7805000    1.0875573 0.00016704124   0.49714473  0.019706379            0   0.47743835    1.6177415    2.1148862    7.8165604 
 7810000     1.100188 2.8386158e-05   0.46003305  0.016921409            0   0.44311164    1.6365296    2.0965627    3.0654769 
 7815000    1.0858884 -1.4869764e-05   0.45117826  0.025504815            0   0.42567345     1.615259    2.0664373    1.5588827 
 7820000    1.0561635 6.9196054e-05    0.5093348  0.032490274            0   0.47684453    1.5710433    2.0803781      4.44227 
 7825000    1.0796149 2.6806557e-05   0.47241958  0.016447128            0   0.45597245    1.6059271    2.0783467    2.9933439 
 7830000    1.0881434 -5.5473774e-05   0.43804078 0.0045751335            0   0.43346564    1.6186133     2.056654   0.16314923 
 7835000   0.99104137 -3.2097974e-05   0.57522787 0.0071158743            0     0.568112     1.474174    2.0494019   0.95379108 
 7840000    1.0574384 -3.4418911e-05   0.47498461   0.03005414            0   0.44493047    1.5729396    2.0479242   0.87309208 
 7845000    1.0879502 2.9612545e-05   0.44933694  0.035331009            0   0.41400593     1.618326    2.0676629    3.0784378 
 7850000    1.0301871 0.00013648564   0.52502357   0.02701305            0   0.49801052    1.5324033    2.0574269    6.7161369 
 7855000    1.0395366  5.12429e-05   0.49947784  0.015437034            0    0.4840408    1.5463108    2.0457886    3.7948796 
 7860000    1.0624649 -0.00010082877   0.48450648  0.024142986            0   0.46036349    1.5804166     2.064923   -1.3766991 
 7865000   0.97946614 -6.475748e-05   0.56091546  0.028609717            0   0.53230574    1.4569559    2.0178713  -0.19251731 
 7870000    1.0653739 4.2019542e-05   0.42461077  0.014753902            0   0.40985687    1.5847436    2.0093544    3.4436214 
 7875000    1.0185274 0.00010095897   0.49127439  0.013799334            0   0.47747506    1.5150596     2.006334       5.4524 
 7880000    1.0122804 0.00020784023   0.48952813  0.013011757            0   0.47651637    1.5057671    1.9952952     9.089575 
 7885000    1.0110127 -4.3704049e-06    0.4783759 0.0096750897            0   0.46870081    1.5038814    1.9822573    1.8330809 
 7890000    1.0102457 1.3004817e-06   0.46339698  0.011244375            0   0.45215261    1.5027404    1.9661374    2.0105272 
 7895000   0.99551405 -0.00011263927   0.48247299  0.014023804            0   0.46844918    1.4808271    1.9633001   -1.8814537 
 7900000    1.0167938 -6.8671591e-05   0.45768767  0.011351931            0   0.44633574    1.5124808    1.9701684  -0.37382189 
 7905000      1.03967 1.2832866e-05   0.43782573   0.01834165            0   0.41948408    1.5465092    1.9843349    2.4223634 
 7910000    1.0727554 7.3835346e-05   0.39569626  0.005454163            0   0.39024209    1.5957237    1.9914199    4.5116664 
 7915000    1.0586575 -3.6914808e-05   0.43289607 0.0012201341            0   0.43167593     1.574753    2.0076491   0.74762364 
 7920000   0.96622294 -2.6707264e-05   0.54547026 0.0021557798            0   0.54331448    1.4372566    1.9827269    1.0711189 
 7925000   0.98800485 2.1180333e-05   0.50840253  0.017347579            0   0.49105495    1.4696572    1.9780597    2.7010151 
 7930000   0.99368086 -5.4233579e-05   0.50957471  0.018334592            0   0.49124012    1.4781003     1.987675   0.13650217 
 7935000    1.0357339 4.2347106e-05   0.44568443  0.021977195            0   0.42370723    1.5406541    1.9863386    3.4317864 
 7940000    1.0110547 0.00012358961    0.4681747  0.012086579            0   0.45608812    1.5039438    1.9721185    6.1906438 
 7945000    1.0124448 -2.2493583e-05   0.47964966  0.019081743            0   0.46056792    1.5060116    1.9856613    1.2178803 
 7950000    1.0275237 -4.9146843e-05   0.48244127  0.046933059            0   0.43550821    1.5284415    2.0108828   0.33333717 
 7955000    1.0040604 -6.9433114e-05   0.52373569  0.026187042            0   0.49754865    1.4935398    2.0172755   -0.3527081 
 7960000   0.97337171 -2.7218706e-05   0.53996343  0.013496901            0   0.52646652    1.4478904    1.9878538    1.0587887 
 7965000   0.99010472 5.9416577e-05   0.51909809  0.050031382            0    0.4690667    1.4727808    1.9918789    4.0199647 
 7970000    1.0386212 -2.3830663e-05   0.44997469  0.037671642            0   0.41230305     1.544949    1.9949237    1.1815037 
 7975000    1.0257127 -1.4319048e-05    0.4661035 0.0054029978            0    0.4607005    1.5257476    1.9918511    1.5030943 
 7980000    1.0062398 2.4719893e-05    0.5035953 0.0086310554            0   0.49496425    1.4967817     2.000377    2.8441493 
 7985000    1.0357059 9.0723337e-05   0.47291771  0.021805678            0   0.45111203    1.5406125    2.0135302    5.1102201 
 7990000   0.99693313 -6.4447104e-06   0.53835739  0.025401991            0    0.5129554     1.482938    2.0212954     1.801316 
 7995000    1.0252968 2.7424515e-05   0.47947952   0.01063856            0   0.46884096     1.525129    2.0046085    2.9406986 
 8000000    1.0325092 1.6017034e-05   0.46775793  0.012859063            0   0.45489886    1.5358575    2.0036154    2.5503302 
 8005000    1.0462954 -4.0098712e-08    0.4295904    0.0204591            0    0.4091313    1.5563644    1.9859548    1.9845861 
 8010000    0.9985531 -8.6676334e-05   0.49440405  0.010566098            0   0.48383795    1.4853477    1.9797518  -0.97880042 
 8015000   0.93775575 -9.8419415e-05    0.5723587  0.034218833            0   0.53813987    1.3949117    1.9672704   -1.3921123 
 8020000    1.0073936 -0.00013601297   0.51216727  0.011799656            0   0.50036761     1.498498    2.0106653   -2.6319106 
 8025000    1.0113368 -3.1614054e-05   0.49577128  0.014248669            0   0.48152262    1.5043635    2.0001348   0.92104174 
 8030000    1.0576802 9.8659168e-05   0.44503326  0.016923943            0   0.42810932    1.5732992    2.0183325    5.3858988 
 8035000    1.0422969 0.00012630915   0.45612276  0.016164798            0   0.43995796    1.5504167    2.0065394    6.3178919 
 8040000   0.99016497 1.7887109e-05   0.54028483  0.053504736            0   0.48678009    1.4728704    2.0131552    2.6237019 
 8045000    1.0793961 -6.6770143e-05   0.41469738  0.043315598            0   0.37138178    1.6056016     2.020299  -0.25878852 
 8050000    1.0209205 2.013876e-05   0.51681909  0.016660859            0   0.50015823    1.5186192    2.0354383    2.7228413 
 8055000    1.0376767 0.00021753861   0.47817371 0.0074762612            0   0.47069745    1.5435441    2.0217178    9.4470357 
 8060000    1.0337448 9.1674317e-05   0.49934439  0.030974032            0   0.46837036    1.5376954    2.0370398    5.1661898 
 8065000    1.0419627 -9.7378103e-05   0.47806918  0.018869899            0   0.45919928    1.5499194    2.0279886   -1.2958506 
 8070000    1.0224846 -2.6244638e-05   0.50772537  0.014942886            0   0.49278249    1.5209458    2.0286711    1.1328542 
 8075000    1.0446753 3.0632003e-05   0.50269088   0.02093277            0   0.48175811    1.5539546    2.0566454    3.1022178 
 8080000    1.0306097 -7.7873806e-05   0.53097271  0.017266546            0   0.51370616    1.5330319    2.0640046  -0.59408801 
 8085000     1.072448 -7.9212173e-05   0.48733965 0.0037900783            0   0.48354957    1.5952664    2.0826061  -0.62116945 
 8090000    1.0648495 7.5307029e-05   0.50159652 0.0073993835            0   0.49419713    1.5839636    2.0855602    4.6560401 
 8095000    1.1213038 7.7914367e-05   0.42894975 0.0056657437            0   0.42328401    1.6679395    2.0968892    4.7563663 
 8100000    1.0210092 0.00012302774   0.55957319  0.011942645            0   0.54763055    1.5187512    2.0783244    6.2776714 
 8105000    1.1090506 6.9987166e-05   0.44821026  0.040599346            0   0.40761091    1.6497128     2.097923    4.4868183 
 8110000    1.0715579 -5.1249605e-05   0.51620114  0.025183622            0   0.49101752    1.5939423    2.1101435   0.36082362 
 8115000     1.089544 1.9167196e-06   0.47495681 0.0057528884            0   0.46920392    1.6206968    2.0956536    2.1610776 
 8120000    1.0511721 6.0617381e-05   0.51943463  0.010845215            0   0.50858942    1.5636186    2.0830532    4.1521265 
 8125000    1.0426711 -7.4425927e-06   0.54552046  0.026735853            0    0.5187846    1.5509733    2.0964937    1.8424532 
 8130000    1.1456232 6.0587306e-06    0.4108233 0.0056930139            0   0.40513029    1.7041145    2.1149378    2.3217425 
 8135000     1.125011 -4.3677711e-05   0.46685573  0.030141794            0   0.43671393    1.6734538    2.1403096   0.64944371 
 8140000    1.0889021 -1.4475229e-05   0.53383349   0.03452626            0   0.49930723    1.6197419    2.1535754    1.6594875 
 8145000    1.0438312 0.00019791094   0.57369292  0.039881348            0   0.53381158    1.5526989    2.1263918    8.8817519 
 8150000    1.0740945 0.00015980285   0.52294948  0.075862125            0   0.44708736    1.5977155     2.120665    7.5752691 
 8155000     1.087253 -3.266588e-05    0.5142495  0.064188427            0   0.45006107    1.6172888    2.1315383    1.0165429 
 8160000    1.0747366 -8.8331853e-06   0.51838383  0.076995323            0   0.44138851    1.5986707    2.1170545    1.8155485 
 8165000    1.0335415 5.1195594e-05   0.57607017  0.039320714            0   0.53674946     1.537393    2.1134632    3.8609394 
 8170000    1.0785575 0.00010164099   0.46645311     0.019428            0   0.44702511    1.6043542    2.0708074    5.5401533 
 8175000    1.1158275 -6.8659748e-05   0.42042968 0.0029288336            0   0.41750085    1.6597934     2.080223  -0.26336303 
 8180000    1.0378519 -4.4562546e-05   0.54949671  0.025115155            0   0.52438156    1.5438047    2.0933014   0.57223317 
 8185000    1.0322603 2.2233508e-05   0.58919709  0.040408768            0   0.54878832    1.5354872    2.1246842     2.883588 
 8190000    1.1187723 5.4533067e-05   0.50664542  0.016472325            0   0.49017309    1.6641739    2.1708193    4.0322146 
 8195000    1.1300888 -7.2377227e-05   0.50214188   0.02914702            0   0.47299486    1.6810071     2.183149  -0.28732701 
 8200000    1.1035097 -0.0002043098   0.53838629  0.031881733            0   0.50650456    1.6414707     2.179857   -4.7939176 
 8205000    1.0971608 -5.7995163e-05   0.53502048  0.029898823            0   0.50512166    1.6320266    2.1670471   0.18747887 
 8210000    1.0841298 3.933215e-05   0.56605825    0.0454086            0   0.52064965    1.6126431    2.1787014    3.5212388 
 8215000     1.141162 -6.6845069e-06   0.45189291    0.0501757            0   0.40171721    1.6974785    2.1493714    1.9212069 
 8220000    1.0801812 8.2851659e-05   0.55141958  0.029755712            0   0.52166387    1.6067695    2.1581891    4.9861924 
 8225000    1.0774359 -3.8689998e-06   0.55815789  0.059096513            0   0.49906138    1.6026859    2.1608438     2.028782 
 8230000     1.095754 -1.730277e-05   0.52891309  0.016397312            0   0.51251577     1.629934    2.1588471    1.5682459 
 8235000    1.1302968 0.00011296182   0.50807836 0.0075555352            0   0.50052283    1.6813165    2.1893949    6.0451582 
 8240000    1.1412439 -0.0001084511   0.48480275  0.036023828            0   0.44877892    1.6976003     2.182403   -1.5193945 
 8245000    1.0515755 -0.00017399123   0.61607296  0.051470231            0   0.56460273    1.5642185    2.1802915   -3.7586091 
 8250000    1.0700905 -2.6500946e-05    0.5960719   0.02914626            0   0.56692564    1.5917597    2.1878316     1.283266 
 8255000    1.0847697 3.1868167e-05   0.56657885  0.029911187            0   0.53666766     1.613595    2.1801738    3.2679406 
 8260000    1.0951811 0.00010601023    0.5409711  0.036172675            0   0.50479843    1.6290818    2.1700529    5.7885355 
 8265000    1.0900121 1.7676659e-05   0.53031948  0.034814563            0   0.49550492     1.621393    2.1517124    2.7550757 
 8270000    1.0451029 -9.4163455e-05   0.56049516  0.024241401            0   0.53625376    1.5545905    2.1150857   -1.0990269 
 8275000    1.0629545 1.0891222e-05   0.53621094  0.024850547            0    0.5113604    1.5811448    2.1173557    2.4891094 
 8280000    1.0996657 -7.1712233e-07   0.49022682 0.0073729691            0   0.48285385    1.6357527    2.1259795    2.1015017 
 8285000    1.0488634 -1.4221093e-05    0.5578571 0.0033741017            0     0.554483    1.5601843    2.1180414    1.6326281 
 8290000    1.0494077 -0.00011370625   0.55073103 0.0024930684            0   0.54823796     1.560994     2.111725   -1.7694483 
 8295000     1.081266 -5.2355707e-05   0.51986668 0.0050324638            0   0.51483421    1.6083832    2.1282499   0.34117507 
 8300000    1.0587587 3.5456188e-05   0.54205524  0.015697695            0   0.52635754    1.5749036    2.1169589    3.3271968 
 8305000    1.0316856 3.518499e-05   0.59504911  0.022849234            0   0.57219987    1.5346324    2.1296815    3.3306625 
 8310000    1.0701496 -3.2531891e-06   0.54488154  0.010504839            0    0.5343767    1.5918475    2.1367291    2.0256869 
 8315000    1.0432464 -8.2187795e-05   0.57269059 0.0033899718            0   0.56930062     1.551829    2.1245196  -0.68082381 
 8320000    1.0284478 -3.2450751e-05   0.58814024   0.01333031            0   0.57480993    1.5298161    2.1179563     1.010304 
 8325000     1.097203 8.463476e-07   0.48042137  0.020599691            0   0.45982168    1.6320895    2.1125108    2.1413995 
 8330000    1.0465327 6.1938299e-05   0.56062486 0.0053916024            0   0.55523325    1.5567174    2.1173422    4.2315029 
 8335000    1.0351138 0.00020140592   0.57648664  0.052176206            0   0.52431043    1.5397317    2.1162184    8.9908737 
 8340000    1.0483119 3.8294379e-05    0.5622989  0.016945565            0   0.54535334     1.559364    2.1216629    3.4287777 
 8345000    1.0777579 5.1164581e-06   0.50026276  0.012051879            0   0.48821088    1.6031649    2.1034277    2.2780694 
 8350000    1.0586719 5.333557e-05    0.5225556  0.032388754            0   0.49016685    1.5747745    2.0973301    3.9178509 
 8355000    1.0559492 -3.5230543e-05   0.53370745  0.024750784            0   0.50895666    1.5707245    2.1044319   0.90189608 
 8360000    1.0407395 -6.1035406e-06   0.56388136 0.0015020557            0    0.5623793       1.5481    2.1119813    1.9036472 
 8365000    1.1177804 -8.1435036e-05   0.47407526 0.00020491564            0   0.47387034    1.6626984    2.1367736   -0.6428756 
 8370000     1.048847 -0.00014901225   0.56315049 0.0019429847            0    0.5612075    1.5601599    2.1233104   -2.9629743 
 8375000    1.0275887 -8.7562064e-05   0.60587954  0.011195892            0   0.59468365    1.5285381    2.1344177  -0.85436744 
 8380000    1.0292406 8.4887147e-05   0.61764826  0.016253727            0   0.60139454    1.5309954    2.1486437     5.046125 
 8385000   0.99470478 -3.5206046e-05   0.66355425  0.029373775            0   0.63418047    1.4796234    2.1431776   0.94147789 
 8390000    1.0413064 -3.7677173e-05   0.60433027  0.016071218            0   0.58825905    1.5489433    2.1532735   0.86722604 
 8395000    1.0735554 3.727817e-05   0.55126832  0.013310206            0   0.53795811    1.5969136    2.1481819    3.4206101 
 8400000    1.0327811 -7.0451542e-05   0.62363234  0.036217259            0   0.58741508    1.5362619    2.1598942  -0.24485172 
 8405000    1.1188457 -9.393112e-05   0.53657027  0.022057662            0   0.51451261     1.664283    2.2008532    -1.005329 
 8410000    1.0269853 -9.6592363e-05   0.68025268  0.023314964            0   0.65693771    1.5276407    2.2078933    -1.089126 
 8415000    1.1083167 3.977241e-05   0.55199697  0.070051658            0   0.48194532    1.6486211    2.2006181     3.558183 
 8420000    1.0788578 0.00017867148   0.59796417  0.018771205            0   0.57919297     1.604801    2.2027652    8.3014183 
 8425000    1.0886166 5.0446139e-05   0.58615694  0.018139796            0   0.56801714    1.6193172    2.2054741     3.927369 
 8430000    1.0644882 -9.5382328e-05   0.61818304  0.032696614            0   0.58548643    1.5834263    2.2016093   -1.0541075 
 8435000    1.0842354 0.0001365334   0.60417123  0.029240518            0   0.57493071    1.6128002    2.2169714    6.8773114 
 8440000    1.0864383 4.1124633e-05    0.5964167  0.012005927            0   0.58441077    1.6160769    2.2124936    3.6162144 
 8445000    1.0659743 -8.656832e-05   0.62665129  0.027675563            0   0.59897573    1.5856368    2.2122881   -0.7425772 
 8450000     1.051039 2.2106459e-05   0.66138716 0.0070341388            0   0.65435302    1.5634204    2.2248076    2.9793747 
 8455000    1.1379453 5.3449262e-05   0.51753471 0.00024739922            0   0.51728731    1.6926936    2.2102284    4.0346298 
 8460000    1.0398549 -0.00018657046   0.66134328 0.0083470518            0   0.65299623    1.5467842    2.2081274   -4.1601442 
 8465000    1.0719902 -7.0257446e-05   0.61034139  0.017957029            0   0.59238436    1.5945854    2.2049268  -0.19319405 
 8470000    1.0372375 -0.00010334618   0.63933597  0.012428548            0   0.62690742    1.5428908    2.1822268   -1.3453227 
 8475000     1.064115 -9.3251572e-05   0.58461207  0.029685386            0   0.55492668    1.5828711    2.1674831   -1.0155039 
 8480000    1.0290834 -1.4037993e-06   0.63149015  0.049384806            0   0.58210534    1.5307615    2.1622517    2.1143353 
 8485000    1.0127921 3.1341503e-05   0.64399741   0.04267111            0    0.6013263    1.5065283    2.1505257    3.2203157 
 8490000    1.0728289 1.6040076e-05   0.57278179  0.038435959            0   0.53434583     1.595833    2.1686148     2.716116 
 8495000    1.0617157 6.9145616e-05   0.54635187  0.014206803            0   0.53214506    1.5793021    2.1256539    4.4858243 
 8500000    1.0952219 3.192467e-06   0.51564564   0.02272581            0   0.49291983    1.6291426    2.1447882    2.2537577 
 8505000   0.96992557 -4.9735603e-06   0.70278815  0.057148646            0   0.64563951    1.4427643    2.1455524    1.9757883 
 8510000    1.1126141 2.2423162e-05   0.50475878   0.01667652            0   0.48808226    1.6550135    2.1597723    2.9251495 
 8515000    1.0698084 2.7028696e-05    0.5943923  0.012506884            0   0.58188542      1.59134    2.1857323    3.1083118 
 8520000    1.1231993 9.4989171e-06   0.53317402  0.024986808            0   0.50818721     1.670759     2.203933    2.5281627 
 8525000    1.1052939 -9.0277069e-05   0.55667808  0.020330847            0   0.53634723    1.6441246    2.2008027  -0.88065455 
 8530000    1.0554609 -5.6569128e-05   0.63269633   0.02294012            0   0.60975621     1.569998    2.2026944   0.27180146 
 8535000    1.0878747 1.6142456e-05   0.59360691  0.013092046            0   0.58051487    1.6182137    2.2118206    2.7628164 
 8540000    1.1873979 -3.0300337e-05    0.4617843 0.0038463839            0   0.45793791    1.7662544    2.2280387    1.1937872 
 8545000    1.0955667 -4.2446559e-05   0.59498525  0.021258025            0   0.57372722    1.6296554    2.2246407   0.77579813 
 8550000    1.0332376 4.8851115e-05   0.69365716    0.0285116            0   0.66514556    1.5369409    2.2305981    3.8980495 
 8555000    1.0478344 -4.2572889e-05   0.66605852  0.038505618            0    0.6275529    1.5586537    2.2247122   0.77155759 
 8560000     1.087783 7.0792561e-05   0.61231962  0.036354724            0    0.5759649    1.6180772    2.2303968    4.6467829 
 8565000    1.1244048 0.0001589331   0.53178438  0.018070719            0   0.51371366    1.6725522    2.2043365    7.6292528 
 8570000    1.1037655 0.00011405019   0.54289602  0.024905256            0   0.51799076    1.6418511    2.1847471    6.0776601 
 8575000    1.1176078 0.00012378084   0.49894268  0.022527344            0   0.47641534    1.6624416    2.1613843    6.3864368 
 8580000    1.0845101 3.0384264e-05   0.51850138  0.011521728            0   0.50697965    1.6132088    2.1317102    3.1688264 
 8585000    1.0267029 -7.9786641e-05   0.58764625   0.03794261            0   0.54970364    1.5272205    2.1148668  -0.60851726 
 8590000    1.0429625 7.8320532e-05   0.57692427  0.071742549            0   0.50518172    1.5514067    2.1283309    4.8016718 
 8595000    1.0351212 0.00010698555   0.59679608  0.011426667            0   0.58536941    1.5397427    2.1365388    5.7883122 
 8600000    1.0180632 4.5168588e-06   0.61063436  0.003868678            0   0.60676568     1.514369    2.1250034    2.2791788 
 8605000    1.0573568 -0.00010347652   0.55463961  0.015368389            0   0.53927122    1.5728182    2.1274579   -1.4045408 
 8610000    0.9660047 -0.00010824395    0.7045695  0.041552816            0   0.66301669     1.436932    2.1415015   -1.5532253 
 8615000    1.0334465 4.4277437e-05   0.59855154  0.050222266            0   0.54832927    1.5372516    2.1358032    3.6471397 
 8620000    1.0041164 0.00011495926   0.63975915  0.015226934            0   0.62453221    1.4936231    2.1333823     6.057325 
 8625000   0.97782031 0.00013792005   0.65336721  0.047626629            0   0.60574058    1.4545077    2.1078749     6.815546 
 8630000    1.0169659 6.0014596e-05   0.58891065  0.016041701            0   0.57286895    1.5127367    2.1016474    4.1501456 
 8635000     1.058023 -4.0600372e-05   0.51299863  0.009590167            0   0.50340846    1.5738093    2.0868079   0.70098189 
 8640000    1.0271594 -3.1079928e-05   0.57091118  0.025351534            0   0.54555965    1.5278997    2.0988109    1.0379493 
 8645000    1.0429637 3.8277876e-05   0.53890077  0.025595722            0   0.51330504    1.5514085    2.0903093    3.3968608 
 8650000     1.006383 -5.6718209e-05   0.60462607 0.0089445111            0   0.59568156    1.4969947    2.1016207   0.16563922 
 8655000    1.0120135 -9.4935984e-05   0.58980394 0.0038658913            0   0.58593805    1.5053701     2.095174   -1.1453076 
 8660000    1.0675082 -7.284295e-05    0.5284168 0.0072946555            0   0.52112214    1.5879184    2.1163352   -0.3700375 
 8665000     1.039172 -8.8366952e-05   0.59651285  0.023667859            0     0.572845    1.5457684    2.1422812  -0.87397738 
 8670000    1.0799692 -1.4904017e-05   0.57505659  0.014412035            0   0.56064455    1.6064542    2.1815108     1.672787 
 8675000    1.0816723 5.7405158e-05   0.54416224  0.033615029            0   0.51054721    1.6089876    2.1531498    4.1125792 
 8680000    1.0433712 1.4161873e-05   0.63077678  0.039406366            0   0.59137041    1.5520146    2.1827914    2.6661833 
 8685000    1.0694667 -0.00011073395   0.60860296  0.042911373            0   0.56569158    1.5908317    2.1994347    -1.580284 
 8690000    1.1155948 -4.226581e-05   0.53465326  0.017312626            0   0.51734063    1.6594473    2.1941006    0.7514276 
 8695000    1.0757275 3.5236824e-05   0.57505306 0.0046943281            0   0.57035873    1.6001446    2.1751977    3.3779479 
 8700000    1.0892509 -6.7583344e-07   0.54718276  0.011618499            0   0.53556426    1.6202607    2.1674435    2.1443751 
 8705000    1.1039898 1.1878373e-05    0.5293915  0.025811118            0   0.50358038    1.6421848    2.1715763    2.5770248 
 8710000    1.0572221 -0.0001498784   0.61885454  0.036645826            0   0.58220871    1.5726179    2.1914725    -2.924377 
 8715000    1.0248768 -0.00026955221   0.67302928   0.04737613            0   0.62565315    1.5245042    2.1975335   -7.0031819 
 8720000    1.0412844 -0.00018151275   0.62367176  0.020929516            0   0.60274225    1.5489106    2.1725824   -4.0230528 
 8725000    1.1216178 2.2846265e-05   0.51591551   0.04277156            0   0.47314395    1.6684065     2.184322    2.9641412 
 8730000    1.0806306 9.4906375e-05   0.57473259  0.048628059            0   0.52610453    1.6074381    2.1821706    5.4216416 
 8735000     1.085196 3.8041733e-05   0.55485519  0.030626393            0    0.5242288     1.614229    2.1690842    3.4675754 
 8740000    1.0620656 -2.9296692e-05   0.59813096  0.021514519            0   0.57661644    1.5798226    2.1779535    1.1779598 
 8745000    1.0864273 -0.00010828808   0.56565019  0.033977384            0   0.53167281    1.6160606    2.1817108   -1.5145223 
 8750000    1.1490117 -7.7657162e-05   0.47402064  0.020197975            0   0.45382267     1.709155    2.1831756  -0.46752219 
 8755000     1.046514 -4.2057682e-05   0.62151259   0.03300658            0   0.58850601    1.5566896    2.1782022    0.7426333 
 8760000    1.0544374 -1.759481e-05   0.62095219  0.026655721            0   0.59429647    1.5684757    2.1894279    1.5888583 
 8765000    1.0908119 7.1897464e-05   0.55961086  0.018718645            0   0.54089222    1.6225827    2.1821935    4.6362936 
 8770000    1.1021248 -4.4301601e-05   0.51846543  0.026023203            0   0.49244222    1.6394106     2.157876   0.64571473 
 8775000    1.0691044 -0.00012666188   0.55130129 0.0053622065            0   0.54593908    1.5902928    2.1415941   -2.1817982 
 8780000    1.0283286 3.4751026e-05   0.61362537  0.011426187            0   0.60219919    1.5296388    2.1432642    3.3294325 
 8785000    1.0865481 4.9792047e-05   0.53854992 0.0087480509            0   0.52980186    1.6162403    2.1547902    3.8543587 
 8790000    1.0203599 0.0001190436   0.60419336  0.032991955            0   0.57120141    1.5177854    2.1219787    6.1853335 
 8795000   0.99711209 0.0002621741    0.6524732  0.050737972            0   0.60173523    1.4832042    2.1356774    11.084553 
 8800000    1.0701144 0.00011134088   0.57360235  0.040739093            0   0.53286325    1.5917952    2.1653976     5.965833 
 8805000    1.0867065 -3.3996203e-05   0.59305057  0.024367627            0   0.56868294    1.6164759    2.2095265    1.0491228 
 8810000    1.1187339 -7.2740309e-06   0.55711079  0.040753181            0   0.51635761    1.6641167    2.2212274    1.9729405 
 8815000    1.1159634 -3.8625476e-05   0.53379504  0.039091917            0   0.49470312    1.6599955    2.1937906   0.87537429 
 8820000    1.0702233 2.1436751e-05   0.61562096  0.059345477            0   0.55627548    1.5919571    2.2075781    2.9392858 
 8825000    1.1192037 4.876447e-05   0.53687191  0.022716152            0   0.51415576    1.6648155    2.2016874    3.8661813 
 8830000    1.1511745 -3.7445033e-05   0.50579037  0.002145822            0   0.50364455    1.7123721    2.2181625    0.9400387 
 8835000    1.0495176 1.2228674e-05   0.64271306 0.0046478404            0   0.63806522    1.5611575    2.2038705    2.6212759 
 8840000    1.1268606 -5.2186739e-05   0.50184848  0.011697481            0   0.49015099    1.6762052    2.1780537   0.39674634 
 8845000    1.0969284 -0.00020205327   0.56620461  0.011312988            0   0.55489163    1.6316809    2.1978856    -4.698866 
 8850000    1.0524786 -0.0001173596   0.61945646   0.02622894            0   0.59322752    1.5655619    2.1850183   -1.8208559 
 8855000    1.0760579 -2.97366e-05   0.58671668  0.023795398            0   0.56292128    1.6006361    2.1873528    1.1723435 
 8860000    1.1136327 0.00011001381   0.53866807  0.018274531            0   0.52039354    1.6565286    2.1951967    5.9503346 
 8865000    1.1198836 0.00011188403   0.53128103   0.02165918            0   0.50962185    1.6658269    2.1971079    6.0160827 
 8870000    1.0699361 -7.6612847e-05   0.57718374  0.021773189            0   0.55541055      1.59153    2.1687137  -0.44633813 
 8875000    1.0686437 -0.00016135567   0.58945837  0.041679425            0   0.54777895    1.5896075    2.1790659   -3.3285411 
 8880000    1.1031214 -6.2846027e-06   0.52128596  0.016923535            0   0.50436242    1.6408931    2.1621791    1.9476646 
 8885000    1.0961661 4.5003483e-05   0.52466056  0.017868103            0   0.50679245     1.630547    2.1552076    3.6913265 
 8890000     1.031895 -4.3247766e-05   0.61701529    0.0205476            0   0.59646769    1.5349439    2.1519592   0.67576876 
 8895000    1.1447508 3.6533386e-05   0.46682274  0.012938649            0    0.4538841    1.7028168    2.1696395    3.4166458 
 8900000    1.0752329 1.3779575e-05   0.56974901  0.044396294            0   0.52535271     1.599409     2.169158    2.6395008 
 8905000    1.0818876 0.00013192479    0.5854405  0.036707855            0   0.54873265    1.6093078    2.1947483     6.697781 
 8910000    1.1110745 7.3619173e-05   0.52395305  0.015163625            0   0.50878942    1.6527233    2.1766763    4.6895441 
 8915000     1.115136 -0.0001575491    0.5277645 0.0067067359            0   0.52105777    1.6587648    2.1865293   -3.1911466 
 8920000    1.0979869 -9.7291267e-05   0.56854617  0.002421324            0   0.56612484    1.6332556    2.2018017   -1.1190735 
 8925000     1.109598 4.6690121e-05   0.53055829  0.014773279            0   0.51578501    1.6505271    2.1810854    3.7747748 
 8930000    1.1257532 3.6475076e-05   0.53026828  0.014904045            0   0.51536424    1.6745578    2.2048261    3.4498421 
 8935000    1.0740511 4.1642197e-05   0.60337385  0.022270876            0   0.58110298    1.5976509    2.2010248    3.6224118 
 8940000    1.1176123 -0.00013889479   0.53825468  0.047053268            0   0.49120141    1.6624483     2.200703    -2.540239 
 8945000    1.0618001 -0.00022432203   0.62892282  0.026395052            0   0.60252777    1.5794276    2.2083505   -5.4485081 
 8950000    1.0920078 -9.0143431e-05   0.58537614  0.032255937            0   0.55312021    1.6243616    2.2097378  -0.86715798 
 8955000    1.0969008 -1.4331246e-06   0.56173966  0.028649872            0   0.53308979    1.6316399    2.1933796    2.1444623 
 8960000   0.98689717 8.2517426e-05   0.69375158  0.012790791            0   0.68096079    1.4680095    2.1617611    4.9783559 
 8965000    1.0657518 -1.6920082e-05   0.55105927  0.026636563            0   0.52442271    1.5853058    2.1363651    1.5588263 
 8970000    1.0641051 -9.9247135e-05   0.55222377  0.027143121            0   0.52508065    1.5828563    2.1350801   -1.2525554 
 8975000    1.0545244 -8.0463061e-05   0.56565823  0.033244711            0   0.53241352     1.568605    2.1342633  -0.61220921 
 8980000    1.0550964 -8.3187426e-06   0.54291495  0.017463643            0   0.52545131    1.5694559    2.1123708    1.8284244 
 8985000   0.99621203 0.0001482262   0.61169484  0.017801661            0   0.59389318    1.4818654    2.0935602    7.1530144 
 8990000    1.0797054 7.0587081e-05   0.47404377  0.015307024            0   0.45873675    1.6060618    2.0801056    4.4894779 
 8995000     1.032572 -4.4073281e-05   0.54768786   0.02529206            0    0.5223958    1.5359509    2.0836388   0.57927076 
 9000000    1.0202564 -4.0348828e-05   0.54876439  0.028290867            0   0.52047352    1.5176313    2.0663957   0.68915576 
 9005000    1.0665526 -4.829347e-06   0.48940237  0.028250307            0   0.46115206     1.586497    2.0758994    1.9110577 
 9010000   0.99858422 -1.2514854e-05   0.55939057  0.015828114            0   0.54356246     1.485394    2.0447846    1.6176109 
 9015000    1.0053095 9.3751575e-05   0.54226182  0.035205956            0   0.50705586    1.4953979    2.0376597    5.2377135 
 9020000    1.0406714 0.00014760555   0.49242496  0.021236328            0   0.47118863    1.5479988    2.0404237    7.0786932 
 9025000    1.0355543 -1.794406e-05   0.50572481  0.010702327            0   0.49502248     1.540387    2.0461118    1.4336213 
 9030000   0.98638131 -0.00019702445   0.56810192  0.013245757            0   0.55485616    1.4672422    2.0353441   -4.6897572 
 9035000    1.0215125 -0.0001028119    0.5228996   0.01613735            0   0.50676225    1.5194998    2.0423994   -1.4669134 
 9040000   0.96164406 4.3066029e-05   0.60333098  0.010499076            0    0.5928319    1.4304455    2.0337765    3.5037636 
 9045000   0.99923366 3.4776284e-05   0.54668049  0.029293604            0   0.51738689    1.4863601    2.0330406    3.2200711 
 9050000   0.99651286 5.5095351e-05   0.54887505  0.020341445            0    0.5285336    1.4823129    2.0311879    3.9117759 
 9055000   0.98813676 6.2011606e-05   0.54878908  0.028654431            0   0.52013465    1.4698534    2.0186425    4.1353053 
 9060000    0.9331649 -1.2664752e-05    0.6440322  0.013773825            0   0.63025838    1.3880828     2.032115    1.5998248 
 9065000   0.98813318 1.9374813e-05   0.57927295 0.0084793603            0   0.57079359    1.4698481    2.0491211     2.710448 
 9070000    1.0304516 0.00012893182   0.50280118  0.010364213            0   0.49243697    1.5327967    2.0355979    6.4364707 
 9075000    1.0482502 0.0001057827    0.4867807 0.0058414786            0   0.48093922    1.5592722    2.0460529     5.656769 
 9080000   0.97839828 -8.1926328e-05   0.57827105 0.0050414322            0   0.57322961    1.4553674    2.0336385  -0.76278018 
 9085000    1.0112873 -9.4559859e-05    0.5651413  0.014332975            0   0.55080832    1.5042898    2.0694311    -1.158212 
 9090000    1.0685034 9.4784582e-05   0.49171114  0.011624641            0    0.4800865    1.5893987    2.0811099    5.3164236 
 9095000    1.0644555 0.00011073606   0.47605466  0.022203018            0   0.45385165    1.5833775    2.0594322     5.839223 
 9100000    1.0107662 -3.3049972e-05   0.56945619  0.027886818            0   0.54156937    1.5035146    2.0729708   0.94486511 
 9105000    1.0545087 -6.1560994e-05   0.52926487   0.01983745            0   0.50942742    1.5685818    2.0978466 -0.0034353012 
 9110000   0.99863908 -6.0315563e-05   0.57963707  0.011619986            0   0.56801708    1.4854756    2.0651127 0.0063414864 
 9115000    1.0316582 -0.00010445564   0.52174056  0.018685136            0   0.50305542    1.5345916    2.0563322    -1.509087 
 9120000   0.97821242 0.00010542804   0.58550287  0.013261213            0   0.57224165     1.455091    2.0405938    5.6392043 
 9125000   0.99693466 0.00023871205   0.56745202  0.019472315            0    0.5479797    1.4829403    2.0503923     10.19843 
 9130000   0.99592502 2.4124564e-05    0.5713169   0.01533095            0   0.55598595    1.4814385    2.0527554    2.8762072 
 9135000   0.99659733 -0.0002253476   0.53247289 0.0093935766            0   0.52307931    1.4824385    2.0149114   -5.6769533 
 9140000     0.963755 -0.00031572993   0.57766302 0.0050567388            0   0.57260628    1.4335856    2.0112486   -8.7656665 
 9145000    1.0449616 -5.2422563e-05   0.45861263  0.003405286            0   0.45520735    1.5543803     2.012993   0.22363614 
 9150000    1.0136372 6.6226863e-05    0.5226055 0.0020079018            0    0.5205976    1.5077853    2.0303908    4.2909344 
 9155000    1.0519604 -8.4837533e-06   0.46045772 0.0040370051            0   0.45642071     1.564791    2.0252488      1.73567 
 9160000   0.98087168 -0.00011411046   0.55419824 0.0059817166            0   0.54821653    1.4590466    2.0132449   -1.8817255 
 9165000    0.9175901 -0.00018130952   0.64958236  0.002659515            0   0.64692285    1.3649153    2.0144976   -4.1742006 
 9170000    1.0095571 -5.8711788e-05   0.50249886  0.011588501            0   0.49091036    1.5017161     2.004215 0.00018598973 
 9175000   0.99665569 -4.3941874e-05   0.51103475  0.022623507            0   0.48841125    1.4825253    1.9935601   0.49367745 
 9180000   0.97604262 -1.0594472e-05    0.5407361 0.0062540328            0   0.53448206    1.4518634    1.9925995    1.6309748 
 9185000   0.98699034 9.0041525e-05   0.52403377  0.010675945            0   0.51335782    1.4681481    1.9921819    5.0655993 
 9190000   0.99326504 -1.4132615e-06   0.51767455  0.021132581            0   0.49654197    1.4774817    1.9951563     1.946917 
 9195000   0.94981569 -6.9369308e-05   0.56884127  0.033760931            0   0.53508033    1.4128508    1.9816921  -0.38611362 
 9200000    1.0282907 8.5482047e-05   0.45593801  0.047229185            0   0.40870883    1.5295824    1.9855204    4.9033076 
 9205000   0.93677251 0.00010470558   0.58534551  0.034734327            0   0.55061118    1.3934491    1.9787946    5.5527451 
 9210000     1.025656 7.4047883e-05   0.49429146  0.015009614            0   0.47928185    1.5256633    2.0199547    4.5474558 
 9215000   0.99840502 -1.3172615e-05   0.51984918 0.0073366527            0   0.51251252    1.4851275    2.0049766    1.5553514 
 9220000   0.99292436 -2.4537103e-05   0.53249988  0.012234972            0   0.52026491     1.476975    2.0094749    1.1719417 
 9225000   0.99292979 -9.0163351e-05   0.54434751  0.016425885            0   0.52792163    1.4769831    2.0213306   -1.0562451 
 9230000    1.0367304 -9.1057697e-06   0.50950572     0.018347            0   0.49115872    1.5421364    2.0516422    1.7408319 
 9235000     1.079244 -8.9406245e-06   0.45877677  0.038053711            0   0.42072306    1.6053755    2.0641523     1.758979 
 9240000    1.0570407 -4.7939736e-05    0.5147618    0.0202859            0    0.4944759     1.572348    2.0871098   0.45076683 
 9245000    1.0046882 6.6957692e-05   0.58454771  0.018105447            0   0.56644226    1.4944737    2.0790214    4.3645106 
 9250000    1.0107805 -2.776176e-05    0.5799747  0.027496597            0   0.55247811     1.503536    2.0835107    1.1359093 
 9255000    1.0233386 -1.668992e-05   0.55295745  0.030125784            0   0.52283167    1.5222161    2.0751736     1.505491 
 9260000    1.0674793 0.00012673771   0.48877562  0.016656706            0   0.47211892    1.5878755    2.0766511    6.4026315 
 9265000    1.0262529 -4.9063524e-05   0.54294225  0.013135435            0   0.52980682    1.5265511    2.0694934   0.39479178 
 9270000    1.0895873 -6.2144639e-05   0.44120607  0.025108223            0   0.41609785    1.6207611    2.0619672  -0.05923652 
 9275000    1.0511601 -3.1586279e-05   0.49938767  0.020937316            0   0.47845036    1.5636006    2.0629883   0.98484331 
 9280000    1.0619627 -7.3533888e-05   0.46819711 0.0037460257            0   0.46445108    1.5796696    2.0478667  -0.46209004 
 9285000     1.038682 4.5944943e-05   0.50983942 0.0014530703            0   0.50838635    1.5450394    2.0548788    3.6231329 
 9290000   0.98559109 3.6519468e-05   0.58537537  0.016276579            0   0.56909879    1.4660667    2.0514421    3.2979733 
 9295000      1.06081 0.00014251374   0.50192114  0.044821844            0    0.4570993    1.5779549     2.079876     6.944345 
 9300000    1.0933737 -0.00012363581   0.47645867  0.012334746            0   0.46412392    1.6263934    2.1028521   -2.1172503 
 9305000    1.0099709 -0.00022224172   0.58343924  0.041436194            0   0.54200304    1.5023317    2.0857709   -5.5000797 
 9310000   0.99641744 6.1300862e-05   0.55937392  0.033802936            0   0.52557098    1.4821709    2.0415449    4.1339476 
 9315000   0.98921714 6.1568656e-05   0.55551928  0.027737159            0   0.52778212    1.4714605    2.0269798    4.1285232 
 9320000    1.0402306 -4.0817008e-05   0.46422447 0.0082561045            0   0.45596837     1.547343    2.0115674   0.61834689 
 9325000    1.0215554 -4.1698455e-05   0.50859109  0.002970442            0   0.50562065    1.5195637    2.0281548   0.60484748 
 9330000   0.98396283 -0.00010188841   0.58600516 0.0090733427            0   0.57693182    1.4636447    2.0496499   -1.4281413 
 9335000    1.0274654 4.3510148e-05   0.51878794  0.021437609            0   0.49735033    1.5283549    2.0471428    3.5322892 
 9340000   0.99884292 0.00028943243    0.5552374  0.011453982            0   0.54378342    1.4857788    2.0410162     11.92031 
 9345000    1.0503116 6.9585848e-05   0.48602607  0.025527411            0   0.46049865    1.5623385    2.0483645    4.4235615 
 9350000   0.97773814 -4.5544459e-05   0.57758407  0.034568095            0   0.54301597    1.4543855    2.0319695   0.47738534 
 9355000   0.99665697 0.00016955713   0.55455167  0.039824815            0   0.51472685    1.4825272    2.0370789    7.8246291 
 9360000    1.0048925 8.7310135e-05   0.53622256  0.044628698            0   0.49159387    1.4947776    2.0310002    5.0111861 
 9365000    1.0434092 -4.3263836e-05   0.47374991   0.04521533            0   0.42853458    1.5520712    2.0258211   0.54908215 
 9370000    1.0116803 0.00010102867   0.50526843  0.011518651            0   0.49374977    1.5048745    2.0101429    5.4585881 
 9375000   0.99451998 5.8668631e-05   0.52625253  0.016538846            0   0.50971368    1.4793485     2.005601    4.0081569 
 9380000   0.99707064 -5.0826566e-05   0.53389276  0.035529715            0   0.49836305    1.4831426    2.0170353   0.28215523 
 9385000    1.0259358 -3.309662e-05   0.49615335  0.017153561            0   0.47899979    1.5260795    2.0222328   0.89253486 
 9390000    1.0162904 -9.9051275e-06    0.4833124  0.030512063            0   0.45280034     1.511732    1.9950444    1.6569494 
 9395000    1.0203369 -4.9527289e-05   0.49801115  0.030284892            0   0.46772625    1.5177511    2.0157623   0.32523083 
 9400000    1.0355916 -0.00012744137   0.47885108  0.002562895            0   0.47628819    1.5404425    2.0192936   -2.3307053 
 9405000    1.0500319 6.6984649e-05    0.4663052  0.010764263            0   0.45554094    1.5619224    2.0282276     4.314637 
 9410000    1.0137542 0.00017933757   0.52918793  0.027517125            0   0.50167081    1.5079593    2.0371472    8.1585363 
 9415000    1.0801103 0.00012225348   0.43778218  0.016121875            0   0.42166031    1.6066641    2.0444463     6.217365 
 9420000    1.0073563 0.00012536796   0.54149849  0.027185545            0   0.51431294    1.4984425     2.039941    6.3191672 
 9425000    1.0146154 6.9280445e-05   0.53417251  0.018723948            0   0.51544856    1.5092404    2.0434129    4.4081854 
 9430000    1.0761929 -3.7740657e-05   0.43638731  0.017975294            0   0.41841202    1.6008369    2.0372242   0.74900977 
 9435000    1.0070634 4.0103158e-05   0.52930386   0.01625326            0    0.5130506    1.4980068    2.0273107    3.3961652 
 9440000    1.0330561 6.6380133e-05   0.50162876  0.044983656            0   0.45664511    1.5366709    2.0382997    4.3040749 
 9445000    1.0594514 -8.2887947e-05   0.44604139  0.023750519            0   0.42229087     1.575934    2.0219754  -0.80726659 
 9450000   0.97307338   -9.016e-05   0.57232564  0.019413028            0   0.55291262    1.4474467    2.0197723    -1.057689 
 9455000    1.0238504 -8.5079082e-05   0.45414649  0.019543096            0   0.43460339    1.5229775     1.977124  -0.92690867 
 9460000   0.94976199 -0.00010177335   0.57102197 0.0033333284            0   0.56768864     1.412771    1.9837929   -1.4900708 
 9465000    1.0028389 5.6895073e-05   0.49101943 0.0026463897            0   0.48837304    1.4917229    1.9827423    3.9247608 
 9470000    1.0518598 5.0340763e-06   0.46102898 0.0071828693            0   0.45384611    1.5646414    2.0256704    2.1975002 
 9475000    1.0635561 4.6148945e-05   0.43890377  0.014926679            0   0.42397709    1.5820397    2.0209435    3.5961608 
 9480000    1.0291386 8.262789e-05   0.49793798  0.016641373            0   0.48129661    1.5308436    2.0287816    4.8491469 
 9485000   0.99488476 8.1143453e-07   0.53574846 0.0076860578            0    0.5280624    1.4798911    2.0156395    2.0433365 
 9490000    1.0297123 -4.2079472e-05   0.47557608  0.016256275            0   0.45931981     1.531697    2.0072731   0.57096043 
 9495000    1.0292759 0.00013285307   0.51046333 0.0072899976            0   0.50317333    1.5310479    2.0415112    6.5762292 
 9500000     1.039798  0.000101868   0.50848499 0.0066345088            0   0.50185048    1.5466995    2.0551845    5.5322788 
 9505000    1.0248226 0.00011849405   0.54143391  0.029904493            0   0.51152941    1.5244236    2.0658575    6.1104542 
 9510000    1.0456349 -5.9946237e-05   0.48899587  0.025593624            0   0.46340224     1.555382    2.0443778 -0.0017870539 
 9515000    1.0691879 7.6217872e-06   0.45118657  0.012476377            0   0.43871019     1.590417    2.0416036    2.3017606 
 9520000    1.0170196 0.00015815189   0.50283688  0.026986211            0   0.47585067    1.5128166    2.0156535    7.4139045 
 9525000    1.0435746 0.00011665835   0.44545532  0.021794323            0     0.423661    1.5523171    1.9977725    5.9797109 
 9530000    1.0341168 -2.3769819e-05   0.44781731 0.0081391493            0   0.43967816    1.5382487    1.9860661    1.1747229 
 9535000    1.0226319 -0.00018370129     0.469253 0.0065395883            0   0.46271342     1.521165     1.990418   -4.2799193 
 9540000    1.0403931 -7.8068413e-05   0.43745605  0.016414511            0   0.42104154    1.5475847    1.9850407  -0.67969442 
 9545000    1.0265453 2.3632995e-05   0.46960788  0.033876359            0   0.43573152    1.5269861     1.996594    2.8032669 
 9550000    1.0219486 8.1603631e-05   0.48730713  0.012844095            0   0.47446303    1.5201486    2.0074557    4.7928597 
 9555000   0.99271346 5.9903267e-05   0.50339728  0.012625259            0   0.49077202    1.4766613    1.9800586    4.0247567 
 9560000   0.99614477 5.4763041e-05   0.50601242  0.036822977            0   0.46918944    1.4817653    1.9877778    3.8570229 
 9565000    1.0075224 -0.00017666226   0.48068908  0.011918606            0   0.46877048    1.4986895    1.9793786   -4.0506932 
 9570000   0.98949657 -2.2503377e-05   0.51675633  0.012656622            0   0.50409971    1.4718762    1.9886325    1.2205172 
 9575000    1.0486885 -1.1519858e-05   0.41242301 0.0098638801            0   0.40255913    1.5599241    1.9723471    1.5791359 
 9580000    1.0422937 5.7542967e-05   0.41238145  0.013755195            0   0.39862626    1.5504119    1.9627933    3.9269266 
 9585000    1.0485984 -3.7924618e-05   0.42754404 0.0088035288            0   0.41874051    1.5597901    1.9873341   0.69284047 
 9590000    1.0042557 -0.00012968645   0.49457584 0.0025769062            0   0.49199893    1.4938303    1.9884061   -2.4382246 
 9595000    0.9858971 0.00016031722   0.51179238 0.0051196951            0   0.50667268    1.4665219    1.9783143    7.4504755 
 9600000    1.0285889 9.1040164e-05   0.45047915 0.0052874935            0   0.44519165     1.530026    1.9805052    5.0880094 
 9605000    1.0773883 1.584678e-05   0.38314657 0.0089376828            0   0.37420889    1.6026152    1.9857617    2.5266652 
 9610000    1.0247096 -5.9403928e-06   0.47063651  0.024505112            0    0.4461314    1.5242555     1.994892    1.7921266 
 9615000    1.0101844 -0.00017576431   0.48550529  0.012653361            0   0.47285193    1.5026493    1.9881546   -4.0112674 
 9620000    1.0170958 -0.00013040517   0.45910267 0.0027483834            0   0.45635429      1.51293    1.9720327   -2.4791303 
 9625000   0.99822088 5.2017421e-05   0.49338484  0.005775333            0    0.4876095    1.4848536    1.9782384    3.7537664 
 9630000    1.0429498 -1.9105851e-05   0.44335787 0.0097671218            0   0.43359075    1.5513878    1.9947457    1.3425993 
 9635000    1.0767974 -3.1235545e-05   0.40484839  0.011888913            0   0.39295948    1.6017361    2.0065845    0.9404112 
 9640000    1.0183383 7.7351089e-05   0.52706561  0.015970715            0   0.51109489    1.5147782    2.0418438    4.6820944 
 9645000    1.0744496 0.00012525163   0.43351697  0.013952817            0   0.41956415    1.5982438    2.0317607    6.3070165 
 9650000    1.0723374 -1.5626043e-05   0.43649988  0.011348891            0   0.42515099    1.5951019    2.0316018    1.4982329 
 9655000     1.061876 -0.00011066039   0.43688276  0.013590054            0   0.42329271    1.5795405    2.0164233   -1.7607847 
 9660000    1.0547057 -4.3281174e-05   0.47834804  0.013720941            0    0.4646271    1.5688748    2.0472228   0.56989208 
 9665000     1.097667 -4.5931461e-05   0.43817074  0.018995138            0    0.4191756    1.6327796    2.0709504   0.50315651 
 9670000    1.0559354 -4.6606536e-05   0.50606768   0.01245076            0   0.49361692     1.570704    2.0767717   0.48593523 
 9675000    1.0757808 0.00010102791   0.48425759  0.014356241            0   0.46990135     1.600224    2.0844816     5.532901 
 9680000    1.1334664 4.1306994e-05   0.40812395 0.0033868303            0   0.40473712    1.6860313    2.0941553    3.5041007 
 9685000    1.0677021 -0.00010275375   0.48344435   0.01508744            0   0.46835691    1.5882069    2.0716513   -1.4356768 
 9690000    1.0703944 -0.00013341097   0.49012544  0.035669251            0   0.45445619    1.5922117    2.0823372    -2.471424 
 9695000    1.0807718 8.5694512e-05    0.4562509  0.029385125            0   0.42686577     1.607648    2.0638989    4.9889382 
 9700000    1.0300951 0.0001242045   0.51118774  0.037887465            0   0.47330027    1.5322665    2.0434542    6.2829677 
 9705000    1.0914385 -5.8876413e-05   0.44756412  0.044401888            0   0.40316223    1.6235148    2.0710789  0.061430691 
 9710000    1.0564643 -9.1419038e-05   0.50278777  0.046135188            0   0.45665258    1.5714906    2.0742784   -1.0461581 
 9715000    1.0686918 3.2005639e-05   0.48242716  0.030334502            0   0.45209266     1.589679    2.0721061    3.1645653 
 9720000    1.1150847 0.00020473862   0.43248485   0.01819561            0   0.41428924    1.6586884    2.0911733    9.0795849 
 9725000    1.1010238 0.0001666378   0.45320109  0.018976396            0   0.43422469     1.637773     2.090974    7.7788775 
 9730000     1.062892 -7.2241602e-05    0.4963451  0.063079335            0   0.43326576    1.5810518    2.0773969  -0.38844974 
 9735000    1.0785716 -1.5113106e-05   0.46271266  0.031551633            0   0.43116103    1.6043753    2.0670879    1.5512273 
 9740000    1.0496239 0.00013999024   0.50374138  0.026774079            0    0.4769673    1.5613155    2.0650569    6.8433904 
 9745000    1.0454577 -6.0363642e-05   0.51116246  0.030752704            0   0.48040976    1.5551183    2.0662808 0.0058684681 
 9750000    1.0635942 -0.00011524173   0.48616825  0.032355182            0   0.45381307    1.5820964    2.0682646   -1.8653198 
 9755000    1.1240921 8.5626442e-05   0.39458394  0.033969208            0   0.36061473    1.6720871     2.066671    4.9893869 
 9760000    1.1021603 2.4168234e-05   0.44067484  0.037260384            0   0.40341446    1.6394635    2.0801384    2.9050807 
 9765000    1.0728939 -5.7553843e-05   0.48448314    0.0373031            0   0.44718004    1.5959296    2.0804128   0.11590828 
 9770000    1.1146058 -5.3848698e-05   0.44500893  0.024080261            0   0.42092867    1.6579762    2.1029851   0.26494957 
 9775000    1.1310768 -4.1256544e-05   0.42138889   0.04196349            0    0.3794254    1.6824767    2.1038656   0.69564225 
 9780000    1.1209805 0.00017516159   0.44754651 0.0073533063            0    0.4401932    1.6674585     2.115005    8.0938539 
 9785000     1.108445 2.3790754e-05   0.45843262 0.0012263417            0   0.45720628    1.6488119    2.1072446    2.9193023 
 9790000    1.1379345 -8.4759851e-05   0.40160495 0.0063020885            0   0.39530286    1.6926775    2.0942825  -0.79885377 
 9795000    1.1390238 -3.1036735e-05   0.38002104  0.012327001            0   0.36769404     1.694298     2.074319    1.0149318 
 9800000    1.0960929 -0.00015211779   0.43943818  0.013179479            0    0.4262587    1.6304383    2.0698764   -3.1224109 
 9805000    1.0812935 4.5087295e-05   0.45484074   0.01779815            0   0.43704259    1.6084241    2.0632649    3.6022445 
 9810000    1.1282198 1.5959765e-05   0.37408817  0.011734518            0   0.36235365     1.678227    2.0523151    2.5970751 
 9815000    1.0302547 5.0626946e-05   0.53115709 0.0061309997            0   0.52502609    1.5325039     2.063661    3.7917274 
 9820000    1.1116953 7.7653103e-05    0.4056277 0.0073548811            0   0.39827282    1.6536468    2.0592745    4.7098337 
 9825000    1.0671096 2.571142e-05    0.4895393  0.008065154            0   0.48147415    1.5873256    2.0768649    2.9544813 
 9830000    1.0403458 5.5706124e-05   0.51850914   0.02179105            0   0.49671809    1.5475144    2.0660236    3.9674593 
 9835000    1.0163922 8.501336e-05   0.50900482  0.026988936            0   0.48201589    1.5118834    2.0208882    4.9226776 
 9840000    1.0339122 -2.1032324e-05   0.51405667  0.025241888            0   0.48881478    1.5379444     2.052001    1.3340977 
 9845000    1.1255949 -7.1870932e-05    0.3746113  0.016403034            0   0.35820826    1.6743225    2.0489338  -0.40426069 
 9850000    1.0527041 5.9899053e-05   0.49309661  0.012539788            0   0.48055682    1.5658973    2.0589939    4.1035483 
 9855000     1.060269 6.101006e-05    0.4997834   0.01522855            0   0.48455485    1.5771501    2.0769335    4.1594102 
 9860000    1.0540167 -3.6313491e-05   0.49808414  0.026494555            0   0.47158958    1.5678498    2.0659339   0.82643342 
 9865000    1.1279626 6.9206431e-05   0.40542053 0.0044663354            0   0.40095419    1.6778443    2.0832649     4.445511 
 9870000    1.0930396 0.00013062808   0.47178159 0.0059467611            0   0.46583483    1.6258964     2.097678      6.55645 
 9875000    1.0761301 2.4466685e-05    0.5044795 0.0092694432            0   0.49521006    1.6007435     2.105223    2.9403525 
 9880000    1.0584126 -6.4831651e-05   0.54168299  0.018100749            0   0.52358224    1.5743888    2.1160718 -0.096848593 
 9885000    1.1204725 1.6211609e-05   0.45982332  0.026765124            0    0.4330582    1.6667028    2.1265262    2.6798824 
 9890000    1.1384864 3.3375725e-05   0.44162578  0.011508219            0   0.43011756    1.6934985    2.1351243     3.274349 
 9895000    1.1222878 -9.1981206e-05    0.4554087  0.013717566            0   0.44169114    1.6694031    2.1248118   -1.0148134 
 9900000    1.0586667 -0.00019291966    0.5279945  0.013120205            0   0.51487429    1.5747668    2.1027613   -4.4822297 
 9905000     1.039834 -0.00018192485   0.55479074  0.031994033            0   0.52279671    1.5467531    2.1015438   -4.1081578 
 9910000    1.1480051 -4.4376015e-05   0.37805815  0.014121451            0    0.3639367    1.7076576    2.0857157    0.5710144 
 9915000    1.0639255 6.537539e-05   0.51939659  0.011132414            0   0.50826418    1.5825892    2.1019858    4.3334657 
 9920000    1.0726798 0.00011439839   0.51189755  0.028696801            0   0.48320075    1.5956112    2.1075088    6.0123072 
 9925000    1.0972668 -4.762108e-05   0.47461654  0.038664598            0   0.43595194    1.6321844    2.1068009   0.48133475 
 9930000     1.100826 -0.00025380041   0.46885443  0.014956519            0   0.45389791    1.6374787    2.1063332   -6.5567207 
 9935000    1.1041961 -0.00015239386   0.47215872 0.0082744848            0   0.46388423    1.6424916    2.1146503   -3.0870599 
 9940000    1.1023196 1.0858969e-05   0.46859132  0.017791307            0   0.45080001    1.6397003    2.1082917    2.4789445 
 9945000    1.0564342 -3.3401893e-05   0.54968903  0.036615072            0   0.51307396    1.5714459    2.1211349   0.98101696 
 9950000    1.1543053 -2.9248308e-05   0.40867228  0.021892325            0   0.38677996    1.7170291    2.1257014    1.1273591 
 9955000    1.1581365 -9.6116688e-05   0.41562139  0.030095031            0   0.38552636    1.7227281    2.1383495   -1.1424335 
 9960000    1.2091341 9.2172058e-06   0.35274817 0.0071109703            0    0.3456372     1.798587    2.1513352    2.4659491 
 9965000    1.1286672 5.0607573e-05   0.48501883 0.0047880108            0   0.48023082    1.6788925    2.1639114    3.8913165 
 9970000    1.1352627 -0.00010541333   0.46023453 0.0075293337            0    0.4527052    1.6887033    2.1489379   -1.4491703 
 9975000    1.2054721 7.5851916e-05   0.36907295  0.015797443            0   0.35327551    1.7931397    2.1622126    4.7512914 
 9980000    1.1300319 8.5539001e-05   0.45399836 0.0083885119            0   0.44560985    1.6809225    2.1349209    5.0546521 
 9985000    1.0950002 -9.8716386e-05   0.51130896 0.0013801866            0   0.50992877    1.6288127    2.1401217   -1.2293976 
 9990000    1.1872073 -0.0001394018   0.39132781 0.0099526399            0   0.38137517    1.7659708    2.1572986   -2.6009494 
 9995000    1.1465693 -9.8445522e-06   0.44003189   0.01540498            0   0.42462691    1.7055218    2.1455537    1.8095263 
10000000    1.0822433 -1.9944016e-05   0.53966456  0.012562113            0   0.52710245    1.6098369    2.1495015    1.4687458 
10005000    1.1175656 -0.00017283826   0.48969864  0.013534995            0   0.47616364    1.6623788    2.1520774   -3.7474685 
10010000    1.0633019 -4.3293389e-05   0.55449578  0.019545029            0   0.53495076    1.5816616    2.1361574   0.65840974 
10015000    1.1366129 4.008356e-06   0.45200975  0.016396051            0    0.4356137    1.6907117    2.1427215      2.27954 
10020000    1.1109081 5.4065913e-05   0.47973736  0.024172005            0   0.45556536    1.6524759    2.1322132    3.9776631 
10025000    1.0407422 -5.7541441e-05   0.56457292  0.068069429            0   0.49650349     1.548104    2.1126769   0.14859572 
10030000    1.1109207 -7.1318008e-05   0.47381291  0.025922764            0   0.44789015    1.6524945    2.1263074  -0.30801398 
10035000     1.160196 6.615549e-05   0.39827799  0.013406931            0   0.38487106    1.7257916    2.1240696     4.382177 
10040000    1.0721529 -5.8775419e-06   0.55183967  0.019166611            0   0.53267306    1.5948275    2.1466671     1.946047 
10045000    1.1151846 2.7352459e-05   0.46825812  0.025381408            0   0.44287671    1.6588371    2.1270952    3.0607258 
10050000    1.0968952 0.00010080219   0.49114302  0.036452076            0   0.45469094    1.6316316    2.1227746    5.5634893 
10055000    1.1220239 1.7402072e-05   0.42767261 0.0075397784            0   0.42013284    1.6690106    2.0966832    2.6906739 
10060000    1.0660396 -0.00011840278   0.51370593 0.0027671836            0   0.51093875    1.5857339    2.0994399   -1.9420417 
10065000    1.1327418 2.8232983e-05   0.41035946  0.012720925            0   0.39763854    1.6849535     2.095313    3.0589988 
10070000    1.0684883 0.0001854049   0.50622829 0.0066736428            0   0.49955464    1.5893763    2.0956046    8.4240918 
10075000    1.0551676 -3.4409527e-05   0.50499633  0.033094465            0   0.47190186    1.5695619    2.0745582   0.90004631 
10080000    1.0289541 -0.0001104019   0.53394885  0.041218759            0   0.49273009    1.5305692     2.064518    -1.703867 
10085000    1.1038453 -7.8811327e-05   0.41491767  0.033282259            0   0.38163541    1.6419698    2.0568875  -0.63320578 
10090000     0.988778 6.223956e-05   0.59470946  0.096507361            0    0.4982021    1.4708073    2.0655167    4.1899604 
10095000    1.0648872 5.4465103e-05   0.48249742  0.034928895            0   0.44756853    1.5840198    2.0665172    3.9255927 
10100000    1.0244729 5.8305303e-05   0.51119481  0.019038125            0   0.49215669    1.5239034    2.0350982    4.0252525 
10105000     1.070614 0.00010558807   0.42542165  0.030148593            0   0.39527305    1.5925383    2.0179599    5.6220326 
10110000    1.0142134 -5.5677308e-05   0.51704333 0.0087475261            0    0.5082958    1.5086424    2.0256857   0.12523358 
10115000    1.0145387 -6.998783e-05   0.52831085  0.015435412            0   0.51287544    1.5091263    2.0374372  -0.35148072 
10120000   0.98468936 -0.00015318905   0.56362869   0.03236475            0   0.53126394    1.4647254    2.0283541   -3.2004988 
10125000   0.98746283 -0.0001071516   0.53592774  0.045590036            0    0.4903377     1.468851    2.0047787   -1.6526625 
10130000    1.0074531 3.2833499e-05   0.48950387  0.015047177            0   0.47445669    1.4985864    1.9880903    3.1088071 
10135000    1.0318995 0.00010096068   0.45338208  0.018213191            0   0.43516889    1.5349505    1.9883326    5.4344571 
10140000   0.97539341 1.0748604e-05   0.52338825  0.035793591            0   0.48759466    1.4508977    1.9742859    2.3411716 
10145000    1.0581948 5.2866071e-06   0.41762252   0.02164527            0   0.39597725    1.5740648    1.9916873    2.1721368 
10150000   0.98948289 0.00010609506   0.51404724  0.025084484            0   0.48896276    1.4718558     1.985903     5.607281 
10155000   0.98861016 6.7713761e-05   0.51835829  0.016057659            0   0.50230063    1.4705576    1.9889159    4.3002123 
10160000     1.044336 -8.3705923e-05   0.43879747  0.021869056            0   0.41692841    1.5534498    1.9922473  -0.86491486 
10165000      1.01949 -1.92401e-06   0.49262578 0.0044862208            0   0.48813956    1.5164914    2.0091171    1.9434443 
10170000    1.0429657 4.0552853e-05    0.4391977  0.005758283            0   0.43343942    1.5514115    1.9906092    3.3748132 
10175000    0.9793162 -1.6644769e-05   0.54068844  0.036398241            0    0.5042902    1.4567328    1.9974213    1.4292798 
10180000    1.0056499 3.1760212e-05   0.51820247  0.024284667            0    0.4939178    1.4959042    2.0141067    3.0981886 
10185000    1.0299702 -0.00014423635   0.48257208  0.026033013            0   0.45653907    1.5320807    2.0146528   -2.9086148 
10190000    1.0091374 -0.00017675707    0.5318081  0.020302798            0    0.5115053    1.5010919       2.0329    -4.000408 
10195000     1.052411 0.00010584863   0.45748111  0.007611817            0   0.44986929    1.5654614    2.0229425    5.6359093 
10200000    1.0002095 0.0001709741   0.55746473 0.0028253382            0   0.55463939    1.4878116    2.0452764    7.8811924 
10205000    1.0332666 -1.7495278e-05   0.53766046 0.0080509642            0   0.52960949     1.536984    2.0746445    1.4774723 
10210000    1.0658993 3.033015e-06    0.4927543  0.023477957            0   0.46927634    1.5855253    2.0782796    2.1818065 
10215000   0.99050827 0.00010046219   0.60411747  0.014767495            0   0.58934997    1.4733811    2.0774985    5.5066081 
10220000    1.0826636 3.4004978e-06   0.47528919  0.018049069            0   0.45724012    1.6104622    2.0857514    2.2018217 
10225000    1.0785952 1.9931373e-05   0.47700598  0.072190173            0   0.40481581    1.6044104    2.0814164    2.7617405 
10230000    1.0262316 0.00016083838   0.56117512  0.029754341            0   0.53142077    1.5265195    2.0876946    7.5776448 
10235000   0.98540969 -2.1433216e-05   0.63370265  0.036680062            0   0.59702259    1.4657969    2.0994996    1.3679125 
10240000    1.0758876 -0.00010009219   0.52307307  0.024009517            0   0.49906355    1.6003829    2.1234559   -1.2930241 
10245000    1.0452879 -2.4448886e-05   0.56333874 0.0085333661            0   0.55480537    1.5548657    2.1182044    1.2836825 
10250000    1.0381611 5.6952025e-05   0.56937902 0.0080540017            0   0.56132502    1.5442647    2.1136437    4.0576061 
10255000    1.0614713 -4.0466141e-05    0.5198752  0.025025708            0   0.49484949    1.5789386    2.0988138   0.71756949 
10260000   0.99554865 -0.00018071215   0.61115741  0.061867323            0   0.54929008    1.4808786     2.092036   -4.0762719 
10265000   0.98475137 6.259078e-06   0.59795307   0.08377732            0   0.51417575    1.4648177    2.0627707    2.2764139 
10270000    1.0528616 -9.4161738e-05   0.48501286  0.037807905            0   0.44720495    1.5661316    2.0511445   -1.1629095 
10275000    1.0547115 -4.8945905e-05   0.49316724  0.015276096            0   0.47789114    1.5688833    2.0620506   0.39136367 
10280000    1.0580606 6.4990542e-05   0.50640298  0.014164742            0   0.49223824    1.5738652    2.0802682     4.298612 
10285000    1.0100577 -4.5159914e-05   0.58353584  0.022168811            0   0.56136703    1.5024608    2.0859966   0.54453822 
10290000    1.0505964 -6.7322243e-06   0.51655785  0.025418138            0   0.49113972    1.5627622      2.07932    1.8495268 
10295000    1.0404336 7.7401973e-05   0.54298553  0.022755909            0   0.52022962     1.547645    2.0906306    4.7326179 
10300000    1.0445965  0.000156798   0.54656767  0.018023489            0   0.52854419    1.5538374     2.100405    7.4524434 
10305000    1.0673405 -2.1462208e-05   0.51858233  0.033232357            0   0.48534997     1.587669    2.1062514    1.3736747 
10310000    1.0662682 -1.8433663e-05   0.53247537  0.012670695            0   0.51980468    1.5860739    2.1185493    1.4893469 
10315000    1.0183921 2.2816123e-05   0.61581332  0.021272517            0    0.5945408    1.5148583    2.1306716     2.909462 
10320000   0.99967709 5.6540421e-05   0.64263519  0.013203424            0   0.62943176    1.4870197    2.1296549    4.0595679 
10325000    1.0746506 -3.3371329e-05   0.52349587 0.0025737042            0   0.52092217    1.5985428    2.1220386   0.98296394 
10330000    1.0046187 -0.00023039443    0.5976839  0.053651918            0   0.54403198    1.4943703    2.0920542   -5.7720756 
10335000    1.0491549 -2.2683806e-05   0.51200505  0.055510318            0   0.45649474    1.5606179     2.072623    1.2983491 
10340000    1.0190546 4.1467745e-07   0.54445146  0.017544964            0    0.5269065    1.5158437    2.0602952    2.0744495 
10345000    1.0109795 -8.1180338e-06   0.57073942  0.017678799            0   0.55306062    1.5038321    2.0745715    1.7974759 
10350000    1.0683746 3.3423003e-05   0.48607539  0.015854736            0   0.47022066    1.5892072    2.0752826    3.2161211 
10355000    1.0580533 1.934679e-05   0.51025205 0.0088192411            0   0.50143281    1.5738542    2.0841063    2.7444767 
10360000    1.0711635 -8.6276127e-05   0.49119623 0.0032302388            0   0.48796599    1.5933557    2.0845519   -0.8603399 
10365000    1.0335996 -9.3356202e-05   0.53587477  0.011090109            0   0.52478467    1.5374794    2.0733541   -1.1132042 
10370000    1.1041731 -2.7273019e-05   0.41527868  0.021325268            0   0.39395341    1.6424575    2.0577362    1.1268172 
10375000   0.98631186 4.6214352e-05   0.57686221  0.017570142            0   0.55929207    1.4671389    2.0440011     3.621451 
10380000   0.97238349 7.8931433e-05   0.58515467 0.0075478688            0    0.5776068    1.4464204    2.0315751     4.725768 
10385000    1.0478332 7.5789872e-05   0.46910429  0.013456969            0   0.45564732    1.5586519    2.0277561    4.6147171 
10390000    1.0264589 5.7345308e-05   0.51923043  0.026524476            0   0.49270595    1.5268577    2.0460881    4.0034746 
10395000    1.0137515 8.6528006e-05   0.53025304  0.012637071            0   0.51761596    1.5079554    2.0382084    4.9916977 
10400000    0.9953107 4.4035276e-05   0.53956914  0.025112093            0   0.51445705    1.4805247    2.0200938    3.5231646 
10405000   0.99885531 -4.5558364e-05    0.5223431  0.028226335            0   0.49411677    1.4857973    2.0081404   0.45308157 
10410000    1.0652608 -4.1202809e-06   0.44940713  0.019922568            0   0.42948456    1.5845754    2.0339825    1.8933436 
10415000    1.0260105 5.8237471e-05   0.49813973   0.01428575            0   0.48385398    1.5261907    2.0243304    4.0121694 
10420000    1.0013745 4.4189822e-05   0.55662363  0.016466366            0   0.54015727    1.4895446    2.0461682    3.5545141 
10425000    1.0115437 -4.0544004e-05    0.5457869  0.018787299            0   0.52699961    1.5046712    2.0504581   0.66655611 
10430000    0.9944286 1.0580211e-05   0.54332079  0.066074237            0   0.47724656    1.4792125    2.0225333    2.3836712 
10435000    1.0327959 8.0211479e-05    0.4920062  0.040807245            0   0.45119895    1.5362838      2.02829    4.7661752 
10440000    1.0072414 5.6923838e-05   0.54280544  0.019578741            0   0.52322669    1.4982716     2.041077    3.9840774 
10445000    1.0822172 -4.7677008e-05   0.43107067  0.010471161            0   0.42059951    1.6097982    2.0408688   0.41349361 
10450000     1.026672 -0.00011355477   0.54208723  0.015940366            0   0.52614687    1.5271745    2.0692618    -1.806741 
10455000    1.0371264 -0.00010134431   0.53872981  0.019059647            0   0.51967016    1.5427255    2.0814553    -1.377764 
10460000     1.092826 2.8493624e-05   0.43392263  0.012006825            0    0.4219158    1.6255786    2.0595013    3.0320836 
10465000    1.0553774 4.1297889e-05   0.49597504  0.010897048            0   0.48507799    1.5698738    2.0658489    3.4754835 
10470000     1.043598 -6.3022658e-05   0.52026097  0.016749599            0   0.50351137     1.552352    2.0726129 -0.078560464 
10475000    1.0902048 -6.46964e-06   0.45771175  0.031756989            0   0.42595476    1.6216796    2.0793914     1.858561 
10480000    1.0005693 -5.5206458e-05   0.58615933  0.024900608            0   0.56125872    1.4883468    2.0745061   0.19012569 
10485000    1.0463559 -6.2748494e-05   0.52012321  0.019345837            0   0.50077738    1.5564544    2.0765776 -0.065237609 
10490000    1.0971425 -9.4793337e-06   0.44332263  0.024669321            0   0.41865331    1.6319995    2.0753221    1.7517609 
10495000    1.0097239 1.7364437e-05   0.57274287  0.033825281            0   0.53891759    1.5019643    2.0747071    2.6674132 
10500000    1.0190109 0.00011335577   0.52794901  0.011618461            0   0.51633055    1.5157788    2.0437278    5.9129381 
10505000     1.019648 -3.2146626e-07   0.53029152  0.035638052            0   0.49465347    1.5167264    2.0470179    2.0360452 
10510000    1.0801404 -1.2024735e-05   0.42815453  0.010815717            0   0.41733881    1.6067088    2.0348634    1.6244191 
10515000    1.0042997 6.6780572e-05   0.54454908 0.0034712419            0   0.54107784    1.4938959    2.0384449    4.3178885 
10520000      1.00978 -4.7911816e-05   0.52671505 0.0080192989            0   0.51869575    1.5020477    2.0287627   0.39337276 
10525000    1.0130871 7.8809837e-05   0.50138523  0.014790835            0    0.4865944    1.5069671    2.0083523    4.6983948 
10530000   0.96953875 -3.5411306e-06   0.55748336   0.04477084            0   0.51271252    1.4421889    1.9996723    1.8788017 
10535000   0.94601312 -5.6861371e-05   0.59111227  0.050064686            0   0.54104759    1.4071945    1.9983068  0.057438649 
10540000   0.95305392 9.2672127e-05    0.5937031  0.053539616            0   0.54016349    1.4176677    2.0113708    5.1745794 
10545000     1.015931 3.0529561e-05   0.51096092  0.021252578            0   0.48970834    1.5111974    2.0221583     3.064234 
10550000     1.043081 -2.1902114e-05   0.47091471  0.013746842            0   0.45716787    1.5515829    2.0224976    1.2749055 
10555000    1.0098978 -0.00010783826    0.5318973   0.01733507            0   0.51456223     1.502223    2.0341203    -1.646759 
10560000    1.0488991 -1.1801702e-06   0.49237694  0.017739321            0   0.47463762    1.5602375    2.0526144    2.0123313 
10565000    1.0314265 -0.00013537731   0.50704335  0.043370408            0   0.46367294     1.534247    2.0412903   -2.5795885 
10570000    0.9893486 -0.00031072428   0.54413139  0.034429652            0   0.50970173     1.471656    2.0157874   -8.5902678 
10575000    1.0371795 -0.0001321098   0.45048182  0.026142962            0   0.42433886    1.5428045    1.9932863   -2.5160614 
10580000   0.98470432 7.0294087e-05   0.50567175  0.031940097            0   0.47373165    1.4647477    1.9704194    4.3697909 
10585000   0.97098152 0.00011464462   0.51070766  0.050570016            0   0.46013764     1.444335    1.9550427    5.8682456 
10590000   0.96905805 -5.9880317e-05   0.51443696  0.026236751            0    0.4882002    1.4414739    1.9559108 -0.088003996 
10595000    1.0039773 -0.00010422019   0.49303722  0.019552869            0   0.47348435    1.4934162    1.9864534   -1.5709292 
10600000     1.019181 -3.1798309e-05   0.46732831  0.010884342            0   0.45644397    1.5160318    1.9833601    0.8979778 
10605000   0.98014136 7.2663791e-05   0.52658834  0.032591398            0   0.49399694    1.4579603    1.9845486     4.464806 
10610000    1.0010757 9.4811868e-05   0.49360201  0.012679107            0   0.48092291    1.4891001    1.9827022    5.2189473 
10615000    1.0202961 3.0030098e-05   0.46472271  0.010202872            0   0.45451984    1.5176905    1.9824132    3.0074405 
10620000      1.00508 -2.7472129e-05   0.49712729  0.012936968            0   0.48419032    1.4950564    1.9921837    1.0544684 
10625000   0.96741826 -5.1537926e-05   0.57430121  0.043488554            0   0.53081266    1.4390347    2.0133359   0.25417465 
10630000    1.0218312 3.6765636e-05   0.48121728  0.046589444            0   0.43462784    1.5199739    2.0011912    3.2561249 
10635000     1.002349 1.2140555e-05   0.49751264  0.034575542            0    0.4629371    1.4909942    1.9885068    2.4029044 
10640000   0.98393451 6.000453e-05   0.51558245 0.0077169251            0   0.50786552    1.4636026     1.979185    4.0273396 
10645000   0.95001997 4.1069845e-05   0.56062666 0.0076348744            0   0.55299179    1.4131547    1.9737814    3.3756321 
10650000    1.0663786 2.0907071e-05   0.39312217   0.01823173            0   0.37489044    1.5862382    1.9793603    2.6929884 
10655000   0.96215951 -0.00013562559   0.54101137 0.0085303664            0     0.532481    1.4312123    1.9722236   -2.6571299 
10660000    0.9499645 -0.00018622847   0.55748002 0.0070450425            0   0.55043498    1.4130722    1.9705522   -4.3860463 
10665000    1.0384638 -9.8910347e-05   0.43991585 0.0054648907            0   0.43445096    1.5447149    1.9846308   -1.3915091 
10670000     0.984278 4.1724017e-05   0.52189801   0.01800105            0   0.50389696    1.4641135    1.9860115    3.4101913 
10675000   0.97071198 6.8821878e-05   0.51858655   0.03097699            0   0.48760956    1.4439341    1.9625206    4.3116407 
10680000    0.9678891 5.298915e-05   0.54428539  0.021281482            0    0.5230039     1.439735    1.9840204    3.7927167 
10685000   0.96907844 2.3765876e-05   0.52241308 0.0044559608            0   0.51795712    1.4415042    1.9639173    2.7751258 
10690000    1.0012668 -0.00011764259   0.45144118 0.0044327484            0   0.44700843    1.4893843    1.9408255   -2.0747082 
10695000    0.9350888 -0.0002072814    0.5543123 0.0089436437            0   0.54536865    1.3909446    1.9452569   -5.1299481 
10700000   0.94091731 -6.4775987e-06   0.53682672 0.0049834099            0   0.53184331    1.3996145    1.9364412    1.7153392 
10705000   0.94369633 4.5162581e-05   0.55299442 0.0041775742            0   0.54881684    1.4037483    1.9567427    3.4982921 
10710000   0.96507886 -5.0228396e-05   0.51783141 0.0090619687            0   0.50876944    1.4355548    1.9533862   0.23892364 
10715000   0.97719215 -2.6085284e-05   0.49677593  0.022913017            0   0.47386292    1.4535733    1.9503493    1.0599716 
10720000   0.94583371 -0.00011861834   0.53480445  0.024305923            0   0.51049852    1.4069276    1.9417321   -2.1071072 
10725000   0.95364721 -0.00014349228   0.54805996    0.0043478            0   0.54371216    1.4185502    1.9666102   -2.9312596 
10730000   0.96218498 1.7843201e-06   0.53954715  0.006865741            0   0.53268141    1.4312502    1.9707973    2.0317021 
10735000   0.96300721 -8.1133773e-05   0.55274738  0.007663983            0    0.5450834    1.4324732    1.9852206  -0.78414553 
10740000   0.93936614 -1.197426e-05   0.59632889  0.022953295            0   0.57337559    1.3973071     1.993636    1.5849146 
10745000   0.97705218 3.1970839e-05   0.53030293  0.035771769            0   0.49453116    1.4533651     1.983668    3.0749393 
10750000    0.9171384 -0.00010270209   0.60613802  0.063436172            0   0.54270185    1.3642434    1.9703814   -1.5351832 
10755000   0.94977901 -8.8687409e-06   0.55153116   0.03307926            0    0.5184519    1.4127963    1.9643274    1.6616077 
10760000    0.9654917 -1.6394684e-05    0.5126587  0.022695331            0   0.48996337    1.4361689    1.9488276    1.3892224 
10765000    0.9303793 8.2982112e-05   0.57773115  0.029913777            0   0.54781737    1.3839392    1.9616704    4.7941265 
10770000   0.94181208 5.2191226e-05   0.53897034  0.038689456            0   0.50028088    1.4009455    1.9399158    3.7213763 
10775000   0.89231697 5.2007122e-05   0.61812883  0.030074556            0   0.58805427    1.3273215    1.9454503    3.7206268 
10780000   0.98078112 0.00014856027   0.46678899  0.012676491            0   0.45411249    1.4589119    1.9257009    6.9965582 
10785000   0.91137546 -2.2509222e-05   0.55393622  0.032734666            0   0.52120156     1.355671    1.9096072    1.1412924 
10790000    0.9845757 5.4301947e-05   0.45845561 0.0081910325            0   0.45026458    1.4645563     1.923012    3.7765184 
10795000   0.91682133 -7.6479799e-05   0.57572214  0.015663326            0   0.56005882    1.3637717    1.9394939   -0.6710166 
10800000   0.89850606 -6.3685988e-05   0.60121243  0.064345163            0   0.53686727    1.3365278    1.9377402  -0.23607486 
10805000   0.98055633 -1.7560209e-06     0.487497  0.013799299            0    0.4736977    1.4585775    1.9460745    1.8861357 
10810000   0.98889728 -0.00010818857   0.47055496 0.0025228451            0   0.46803212    1.4709847    1.9415397   -1.7512967 
10815000   0.95400862 5.5164196e-05   0.53780776  0.018520994            0   0.51928676    1.4190878    1.9568956    3.8398335 
10820000    1.0131203 0.00010292119   0.45718284  0.034289879            0   0.42289296    1.5070165    1.9641993    5.4772427 
10825000   0.95640407 8.949322e-05   0.54239656  0.034233166            0   0.50816339    1.4226511    1.9650476    5.0197495 
10830000   0.99411301 -7.6837349e-05   0.50135133  0.016159946            0   0.48519138    1.4787431    1.9800944  -0.64262043 
10835000   0.93574124 -0.00013629399   0.58271212  0.013535035            0   0.56917708    1.3919151    1.9746272    -2.677541 
10840000   0.98211232 8.2687543e-05   0.50546966   0.01447813            0   0.49099153    1.4608921    1.9663617    4.7887632 
10845000   0.98080513 9.3968561e-05   0.51686819 0.0054948935            0    0.5113733    1.4589476    1.9758158     5.183276 
10850000    1.0104407 -2.9348618e-05    0.4410588 0.0029080656            0   0.43815073    1.5030306    1.9440894   0.94232326 
10855000    1.0058897 -4.8686789e-06   0.44421918 0.0014692798            0    0.4427499    1.4962609      1.94048    1.7742958 
10860000   0.98058781 -1.5348697e-05   0.49817004 0.0033126819            0   0.49485736    1.4586244    1.9567944    1.4328922 
10865000   0.97831311 -1.5052107e-06   0.49540739  0.010722669            0   0.48468472    1.4552407    1.9506481    1.8992703 
10870000   0.98537726 0.00012049323   0.47024041 0.0090649826            0   0.46117543    1.4657487    1.9359891    6.0488246 
10875000    0.9424923 6.3755431e-05   0.52241089  0.012527996            0   0.50988289    1.4019573    1.9243682    4.1005536 
10880000   0.92652589 -2.3060886e-05   0.53976792  0.023430364            0   0.51633756    1.3782073    1.9179752    1.1308303 
10885000    1.0183057 3.0596562e-05   0.44104156  0.040964638            0   0.40007692    1.5147297    1.9557713     3.000134 
10890000    1.0464942 -8.9877849e-05   0.44001236  0.024014182            0   0.41599818    1.5566601    1.9966725   -1.0711581 
10895000   0.99549064 -0.00011022158   0.51395844  0.021482368            0   0.49247607    1.4807923    1.9947508    -1.767479 
10900000   0.96210822 0.00014780403   0.56161608   0.05737844            0   0.50423764     1.431136    1.9927521    7.0377961 
10905000     1.007112 -4.837099e-06   0.48303829  0.038217811            0   0.44482047    1.4980791    1.9811174    1.8160111 
10910000    1.0316816 -0.00022888915   0.46027816  0.013651846            0   0.44662632    1.5346264    1.9949046    -5.817845 
10915000     1.040063 -0.00015558738   0.45279601  0.022152699            0   0.43064331    1.5470937    1.9998897   -3.3108263 
10920000    1.0593961 -1.6769024e-05   0.43208614  0.021447626            0   0.41063851    1.5758518    2.0079379    1.4355552 
10925000    1.0188949 -2.1781362e-05   0.47156036  0.020787068            0   0.45077329    1.5156062    1.9871665    1.2436961 
10930000   0.99704959 -2.7332469e-05   0.51297378  0.029805557            0   0.48316823    1.4831113     1.996085    1.0631368 
10935000    1.0241611 2.0311054e-05   0.46768556  0.043722964            0   0.42396259    1.5234397    1.9911252    2.6844092 
10940000    1.0384504 -5.685842e-05   0.45967513  0.019106163            0   0.44056897    1.5446949    2.0043701  0.063602643 
10945000   0.98916906 -6.6768847e-05   0.52251367 0.0053417467            0   0.51717192     1.471389    1.9939026  -0.28514066 
10950000    1.0462948 -0.00011214727   0.46167823  0.011706158            0   0.44997207    1.5563635    2.0180417   -1.8099184 
10955000    0.9954682 -0.00015357453   0.53145304  0.059231173            0   0.47222187     1.480759     2.012212   -3.2297985 
10960000   0.99698543 -2.971795e-05   0.52253848  0.039498115            0   0.48304036    1.4830158    2.0055543   0.99118162 
10965000    1.0374706 0.00017708873   0.46054721   0.02273016            0   0.43781706    1.5432375    2.0037847    8.0484135 
10970000   0.99195647 9.7157077e-05   0.52594753  0.016542295            0   0.50940523    1.4755353    2.0014828    5.3177777 
10975000    1.0312618 -0.0002296248    0.4758108  0.021483828            0   0.45432697    1.5340019    2.0098127    -5.828047 
10980000   0.99210267 -0.00019841352   0.54832409  0.038805925            0   0.50951816    1.4757527    2.0240768   -4.7484379 
10985000    0.9783755 7.7235024e-05   0.55546408  0.021083718            0   0.53438036    1.4553336    2.0107976    4.6470865 
10990000    1.0163527 6.0160073e-07   0.50166717  0.015848151            0   0.48581902    1.5118246    2.0134918    2.0340264 
10995000   0.99563329 -0.00011612555   0.53254499  0.026098262            0   0.50644673    1.4810045    2.0135495   -1.9502027 
11000000    1.0250774  3.29085e-05   0.48324432 0.0050073085            0   0.47823702    1.5248026    2.0080469    3.1313237 
11005000    1.0260057 -3.4959621e-05   0.45589804 0.0099437093            0   0.44595433    1.5261835    1.9820816   0.78879315 
11010000   0.96978269 -0.00024742836   0.53396814  0.018260838            0   0.51570731    1.4425518    1.9765199   -6.4690347 
11015000   0.94507075 -0.00013110932   0.54604759  0.025761786            0    0.5202858    1.4057927    1.9518403   -2.5233577 
11020000   0.95029805 7.8186362e-05   0.53448654  0.020966806            0   0.51351974    1.4135684    1.9480549    4.6168161 
11025000   0.94558533 7.7664231e-05    0.5589439  0.085414656            0   0.47352925    1.4065582    1.9655021    4.6164412 
11030000   0.95387515 -0.00018141392   0.50363743  0.013874398            0   0.48976303    1.4188893    1.9225267    -4.269735 
11035000   0.97823405 -0.0001595476   0.47918607 0.0046364563            0   0.47454961    1.4551231    1.9343092   -3.5115821 
11040000   0.97218768 7.4265635e-05   0.51339209 0.0071856527            0   0.50620644    1.4461292    1.9595213    4.4944549 
11045000    1.0230202 9.1696683e-05   0.45208419   0.02846305            0   0.42362114    1.5217426    1.9738268    5.1037402 
11050000   0.95726481 2.4272952e-05   0.53228276  0.019471507            0   0.51281125    1.4239314    1.9562142    2.7847309 
11055000   0.95047213 2.664055e-05   0.55438032  0.024394873            0   0.52998544    1.4138273    1.9682076    2.8775384 
11060000   0.97455392 0.00010596065   0.51349403  0.045228572            0   0.46826546     1.449649     1.963143     5.579933 
11065000   0.99769594 0.00015512997   0.49371796  0.013162796            0   0.48055516    1.4840727    1.9777907    7.2728936 
11070000    1.0126844 5.0774823e-07   0.47346859   0.03093927            0   0.44252932     1.506368    1.9798366    1.9971677 
11075000    0.9584251 5.5981403e-06   0.54638948  0.041432783            0    0.5049567    1.4256573    1.9720468      2.16313 
11080000    1.0381999 5.9691359e-06   0.41501647  0.012811369            0    0.4022051    1.5443224    1.9593389    2.1630854 
11085000   0.98011173 9.7940971e-05   0.49723845  0.033726871            0   0.46351158    1.4579162    1.9551546    5.2982064 
11090000   0.94646721 4.9201884e-05   0.52323479  0.053707883            0   0.46952691      1.40787    1.9311048    3.6105291 
11095000   0.93401329 4.1880638e-05   0.54241466  0.025022355            0    0.5173923    1.3893448    1.9317594    3.3612852 
11100000   0.97824567 -8.9803122e-05   0.45447762 0.0055538192            0    0.4489238    1.4551404    1.9096181   -1.1556618 
11105000   0.96942136 -3.1933664e-06   0.43101579 0.0064796995            0   0.42453609    1.4420143    1.8730301    1.7640298 
11110000   0.95048199 4.0452127e-05   0.43297962  0.003871991            0   0.42910762     1.413842    1.8468216    3.2275875 
11115000   0.91087829 -5.5248752e-05   0.48087226 0.00090663694            0   0.47996562    1.3549315    1.8358037 -0.050020336 
11120000   0.93656025 7.4741938e-05   0.43291336 0.0050544944            0   0.42785887    1.3931334    1.8260467    4.3772382 
11125000    0.9257441 1.6354833e-05   0.44461236  0.015026264            0   0.42958609    1.3770444    1.8216567    2.3799017 
11130000   0.93378102 -3.4568654e-05   0.45395567 0.0051613725            0    0.4487943    1.3889993    1.8429549   0.66301156 
11135000   0.93309228 -1.8621536e-05   0.44023289  0.021577465            0   0.41865542    1.3879748    1.8282077    1.1925926 
11140000   0.82192037 -0.00011656758   0.62080426  0.020638604            0   0.60016565    1.2226065    1.8434108   -2.1354292 
11145000   0.96024328 1.2613177e-05   0.42679975  0.024406074            0   0.40239368    1.4283619    1.8551616    2.2856914 
11150000    0.9237943 7.2622146e-05   0.46173205  0.028145876            0   0.43358617     1.374144    1.8358761     4.314712 
11155000   0.94410808 -8.1918211e-06   0.42128126  0.022449374            0   0.39883188    1.4043608     1.825642    1.5460279 
11160000   0.90286605 -0.00011296675   0.47545269  0.015408471            0   0.46004422    1.3430132    1.8184659   -2.0374659 
11165000   0.85932465 -1.9108295e-06   0.51951482  0.042935787            0   0.47657903    1.2782454    1.7977602    1.7325373 
11170000     0.898052 4.7520235e-05   0.44303409  0.024724072            0   0.41831002    1.3358523    1.7788864    3.4009104 
11175000   0.82620055 -3.4292874e-05   0.53774058 0.0025864353            0   0.53515415    1.2289733    1.7667139   0.59618381 
11180000    0.9166088 -6.3866241e-05   0.41452626 0.0069635513            0   0.40756271    1.3634556    1.7779818  -0.40198584 
11185000   0.82708709 -0.00010760526   0.55027816  0.017440672            0   0.53283749     1.230292    1.7805702    -1.892356 
11190000   0.85941117 -9.0246721e-05   0.51335459   0.02238842            0   0.49096617    1.2783741    1.7917287   -1.2886927 
11195000    0.8719411 3.0586292e-06   0.49226982  0.021645717            0    0.4706241    1.2970124    1.7892822    1.8936834 
11200000   0.89218699 6.5723324e-05   0.47862153  0.030176866            0   0.44844466    1.3271281    1.8057497    4.0491058 
11205000   0.88476924 2.2387867e-05   0.49073656  0.029655707            0   0.46108086    1.3160942    1.8068308    2.5710033 
11210000   0.91468572 4.4724678e-05   0.44521454 0.0088096259            0   0.43640491     1.360595    1.8058095    3.3324119 
11215000   0.87474636 -1.6313327e-05   0.49759535 0.0077498349            0   0.48984551    1.3011852    1.7987806    1.2419523 
11220000   0.86424806 1.5914577e-05   0.53735197 0.0095087441            0   0.52784323     1.285569     1.822921    2.3661385 
11225000   0.94644375 0.00022942537   0.42183637  0.028864229            0   0.39297214    1.4078351    1.8296714     9.660724 
11230000   0.86269496 0.00015574574   0.54669047  0.023870828            0   0.52281964    1.2832587    1.8299492    7.1460704 
11235000   0.88403268 4.0621969e-05   0.51860838  0.030291884            0   0.48831649    1.3149986     1.833607    3.2201702 
11240000   0.86115721 0.00019118579   0.55385051 0.0095596658            0   0.54429085    1.2809713    1.8348219    8.3606301 
11245000   0.85390916  0.000127208   0.57433362  0.010690727            0   0.56364289    1.2701899    1.8445235    6.1865567 
11250000    0.9452725 -5.7453219e-05   0.42290258  0.018727095            0   0.40417548    1.4060928    1.8289954  -0.13207446 
11255000   0.88362819 -9.628923e-05   0.51355079  0.015330043            0   0.49822074    1.3143969    1.8279477   -1.4587247 
11260000   0.87092402 -3.8360535e-06    0.5611504  0.018983529            0   0.54216688    1.2954995    1.8566499    1.7257126 
11265000   0.89888385 0.00010540779   0.54440322 0.0088609984            0   0.53554222    1.3370897    1.8814929    5.4794122 
11270000   0.93388252 3.3400235e-05   0.49312653  0.016679164            0   0.47644737    1.3891503    1.8822768    3.0223381 
11275000   0.90478655 3.5135744e-05   0.52732967  0.014105773            0    0.5132239      1.34587    1.8731997    3.0724997 
11280000   0.91550537 0.00010504563   0.50872494 0.0094043306            0   0.49932061    1.3618142    1.8705392    5.4560967 
11285000   0.94748236 4.2483585e-05   0.44131655  0.011304643            0   0.43001191      1.40938    1.8506966    3.3008029 
11290000   0.92997739 4.9410848e-05   0.48172733 0.0028052406            0   0.47892209    1.3833414    1.8650687    3.5516257 
11295000   0.99447677 -3.7785625e-05   0.39607175  0.002912856            0   0.39315889    1.4792842    1.8753559   0.58560663 
11300000   0.98086041 -5.8452105e-05   0.41999047 0.0086383058            0   0.41135217    1.4590299    1.8790203  -0.11614487 
11305000   0.93167977 4.6474827e-05   0.55078891  0.017615468            0   0.53317344    1.3858737    1.9366626    3.5230033 
11310000   0.98133969 -8.2769894e-05   0.48498216  0.029675933            0   0.45530623    1.4597428     1.944725  -0.88048741 
11315000   0.95924827 -0.00013249076   0.53068142  0.016523504            0   0.51415791    1.4268818    1.9575632   -2.5647879 
11320000   0.95309144 3.9343026e-05   0.53340834  0.030843651            0   0.50256469    1.4177235    1.9511319    3.2940405 
11325000   0.94299935   0.00014279   0.54378281  0.043526423            0   0.50025638    1.4027115    1.9464943    6.8203928 
11330000   0.97070193 5.7903533e-05   0.49472345 0.0099739899            0   0.48474946    1.4439191    1.9386426    3.9150832 
11335000   0.90628834 6.9335155e-06   0.58920906 0.0080574659            0    0.5811516    1.3481039     1.937313     2.173977 
11340000    1.0314418 5.4768982e-05   0.41454454 0.0055411136            0   0.40900342    1.5342697    1.9488142    3.8182621 
11345000   0.93441465 2.0499739e-05   0.55766416  0.025999033            0   0.53166513    1.3899418    1.9476059    2.6473304 
11350000   0.96846794 -8.2842151e-06   0.48981267  0.011844403            0   0.47796826    1.4405961    1.9304087    1.6476408 
11355000    0.9743631 3.6276689e-05    0.4321755 0.0047690804            0   0.42740642    1.4493651    1.8815406    3.1197849 
11360000   0.90653229 5.7372422e-05   0.54243688 0.0069879009            0   0.53544898    1.3484668    1.8909037    3.8492157 
11365000   0.95945548 0.0001128774   0.45119326  0.017673637            0   0.43351962      1.42719    1.8783833    5.7312653 
11370000   0.92051778 3.6004299e-05   0.50657404   0.01422357            0   0.49235047    1.3692702    1.8758442     3.104791 
11375000   0.93192768 -5.7387494e-05   0.51064618  0.013289169            0   0.49735701    1.3862424    1.8968886 -0.061937846 
11380000   0.91044011 5.3336776e-05   0.54972212  0.015041513            0   0.53468061    1.3542797    1.9040018    3.7245637 
11385000   0.89345469 0.00012463657   0.57754034  0.020602811            0   0.55693753    1.3290138    1.9065542    6.1608159 
11390000   0.90337323 -2.693719e-05   0.54133552  0.023057569            0   0.51827795    1.3437677    1.8851032   0.96564713 
11395000   0.92625776 3.1024925e-05   0.49814399  0.016774059            0   0.48136993    1.3778084    1.8759524    2.9349365 
11400000   0.92233983 2.7101484e-05    0.5175756 0.0087577756            0   0.50881782    1.3719805    1.8895561    2.8146201 
11405000   0.91257097 -0.00010769378   0.52882769   0.01364083            0   0.51518686    1.3574493     1.886277   -1.7896707 
11410000   0.94479431 1.4212844e-05   0.49007006 0.0077333725            0   0.48233669    1.4053815    1.8954516    2.3805833 
11415000   0.96503775 5.6008173e-05   0.49064035 0.0056739532            0   0.48496639    1.4354937     1.926134    3.8378796 
11420000   0.94616616 6.2384534e-06    0.5443357  0.005695779            0   0.53863992    1.4074222    1.9517579    2.1646971 
11425000   0.95558439 3.4812196e-05   0.52692451  0.011816514            0     0.515108    1.4214318    1.9483563    3.1366126 
11430000   0.94599047 3.3562403e-05   0.53047745  0.015536915            0   0.51494053    1.4071608    1.9376383     3.083235 
11435000   0.93463083 -0.00015080475   0.57900682 0.0095576867            0   0.56944914    1.3902634    1.9692702   -3.1781988 
11440000   0.95929667 -0.00010970245   0.52741443 0.0064956458            0   0.52091878    1.4269538    1.9543682   -1.7901419 
11445000   0.94249172 -4.3649732e-05   0.54937034  0.019506699            0   0.52986364    1.4019564    1.9513268   0.46141593 
11450000   0.93932466 -1.946612e-05   0.55850077  0.019319272            0   0.53918149    1.3972454    1.9557462    1.2913026 
11455000   0.98434148  2.50194e-05   0.51214525 0.0075481018            0   0.50459714    1.4642079    1.9763532    2.8303487 
11460000   0.99175843 -2.3376188e-06   0.53797108  0.018472343            0   0.51949874    1.4752407    2.0132117     1.933421 
11465000   0.97668352 0.00016064811   0.56962707  0.018781892            0   0.55084518    1.4528167    2.0224438    7.5058994 
11470000    1.0115522 -4.275838e-06   0.50567651 0.0055988879            0   0.50007762    1.5046839    2.0103604    1.8644118 
11475000   0.97801557 -0.00024724036   0.56961361 0.0075133884            0   0.56210023    1.4547982    2.0244118   -6.4147259 
11480000   0.98801015 6.5638385e-05   0.56721863  0.016557718            0   0.55066091    1.4696651    2.0368837    4.2773406 
11485000   0.99678635 3.9003132e-05   0.54114792  0.030301576            0   0.51084634    1.4827197    2.0238676    3.3551745 
11490000   0.94305548 5.1195832e-06   0.61808724  0.058840834            0    0.5592464     1.402795    2.0208823    2.1956307 
11495000    1.0252857 1.3363451e-05   0.51149008  0.034685276            0   0.47680481    1.5251124    2.0366025    2.4927417 
11500000    1.0142185 9.8652619e-05   0.51905351 0.0099463589            0   0.50910715    1.5086501    2.0277036    5.3950463 
11505000   0.99495981 0.00019198793   0.54148746 0.0097320085            0   0.53175545    1.4800027    2.0214902    8.5746781 
11510000   0.98184493 -0.00010892518   0.55039624  0.037685868            0   0.51271037    1.4604943    2.0108906   -1.7070889 
11515000    0.9555375 -0.00010893882   0.59175017   0.02448623            0   0.56726394     1.421362    2.0131122   -1.7053327 
11520000    1.0055285 6.0004635e-05     0.485315  0.023094908            0    0.4622201    1.4957236    1.9810386    4.0291968 
11525000   0.95287306 -9.9364365e-05   0.54874992  0.037215268            0   0.51153465    1.4173987    1.9661486   -1.4254884 
11530000   0.95224416 7.4236288e-05   0.56590735   0.02250366            0   0.54340369    1.4164632    1.9823705    4.5163025 
11535000    1.0287733 0.00017133592   0.46019388  0.025112414            0   0.43508147    1.5303003    1.9904942    7.8387601 
11540000    1.0389312 -6.6874201e-05   0.47800302  0.015651838            0   0.46235118    1.5454102    2.0234132  -0.25922614 
11545000    1.0356934 -0.00010872179   0.51454869  0.019769036            0   0.49477966    1.5405939    2.0551426   -1.6558945 
11550000    1.0558894 0.00010699795    0.4718109  0.013033905            0     0.458777    1.5706355    2.0424464    5.6946431 
11555000    1.0484316 -1.5528604e-05   0.51056588  0.010828809            0   0.49973707     1.559542    2.0701079    1.5400649 
11560000    1.0737412 -0.00021352462   0.48384636  0.013548192            0   0.47029817    1.5971901    2.0810364   -5.2072705 
11565000    1.0263663 4.9635621e-05   0.55505323  0.019511701            0   0.53554153    1.5267198    2.0817731    3.7760023 
11570000      1.04497 3.1532808e-06   0.52839009   0.02627355            0   0.50211654    1.5543928    2.0827829    2.1904149 
11575000    1.0128408 -7.0088393e-05   0.57444217    0.0176966            0   0.55674556    1.5066007    2.0810429  -0.31130757 
11580000    1.0436506 -4.1696684e-05   0.55672107 0.0099876095            0   0.54673346    1.5524302    2.1091513   0.68590449 
11585000    1.0785879 -2.2448887e-05   0.48008023  0.010506894            0   0.46957334    1.6043995    2.0844797    1.3182243 
11590000    1.0251919 6.9914557e-06   0.55902205  0.010559353            0   0.54846269    1.5249729    2.0839949    2.3226366 
11595000   0.96028121 -2.7733388e-05   0.65910309 0.0040461861            0   0.65505691    1.4284183    2.0875214    1.1408884 
11600000    1.0641248 6.777386e-05   0.50950255  0.026014437            0   0.48348812    1.5828856    2.0923881    4.4057359 
11605000    1.0391389 4.3642937e-05   0.54295579  0.038479398            0   0.50447639    1.5457192     2.088675    3.5783539 
11610000   0.95209553 -0.00010775799   0.65109646  0.041344855            0   0.60975161    1.4162421    2.0673386   -1.6108008 
11615000    1.0266443 -3.8230343e-05    0.5449835   0.03047746            0   0.51450604    1.5271334    2.0721169   0.76718784 
11620000     1.032971 -5.7720068e-05   0.53162215  0.032083194            0   0.49953896    1.5365443    2.0681665  0.097988173 
11625000   0.96494722 -6.7886427e-05   0.61833985   0.01131193            0   0.60702792     1.435359    2.0536988  -0.26349122 
11630000   0.98859241 0.00015878684   0.58553587 0.0073481799            0   0.57818769    1.4705312    2.0560671    7.4759913 
11635000    1.0606055 2.6518274e-06   0.48875045   0.01026281            0   0.47848764    1.5776507    2.0664011    2.1569169 
11640000   0.99395197 -0.00012475426   0.58119718  0.024138668            0   0.55705852    1.4785036    2.0597007    -2.198578 
11645000   0.99249913 -0.00013859156   0.53459065  0.023122263            0   0.51146839    1.4763425    2.0109331   -2.7196587 
11650000   0.98088831 -0.00010256574   0.54098901  0.028635786            0   0.51235322    1.4590714    2.0000604   -1.5008503 
11655000   0.96987808 0.00017177915   0.53608725  0.023141798            0   0.51294546    1.4426936    1.9787809    7.8421759 
11660000   0.98924659 1.9160927e-06    0.5233355   0.01540987            0   0.50792563    1.4715043    1.9948398    2.0602424 
11665000   0.96614041 -6.1539598e-05   0.56859259  0.017694439            0   0.55089815    1.4371339    2.0057264 -0.094825174 
11670000   0.98940711 0.0001451282   0.55081021  0.034302765            0   0.51650745    1.4717431    2.0225533    6.9762626 
11675000   0.98295752 1.7511478e-05   0.52774539  0.012721136            0   0.51502425    1.4621493    1.9898947    2.5876198 
11680000    1.0105817 6.5763491e-08   0.47149008 0.0076556839            0   0.46383439    1.5032402    1.9747303     1.976975 
11685000   0.97851853 4.391062e-05   0.52928115 0.0045115372            0   0.52476962    1.4555463    1.9848275    3.4836433 
11690000   0.97474671 -0.00017261977    0.5439802  0.019212977            0   0.52476722    1.4499357    1.9939159   -3.8981721 
11695000    1.0226817 -8.7166456e-05   0.47858075  0.036001966            0   0.44257879     1.521239    1.9998197    -0.975462 
11700000   0.95800796 -7.7679729e-05   0.56508979  0.045594493            0   0.51949529    1.4250368    1.9901266  -0.66134145 
11705000    1.0242964 1.7158929e-05   0.46022616  0.030593141            0   0.42963302    1.5236409    1.9838671    2.5695585 
11710000   0.95150424 -8.5130105e-05   0.57083578  0.014643271            0   0.55619251    1.4153626    1.9861983  -0.91957591 
11715000    1.0311699 -4.9624273e-05   0.46065374  0.011312667            0   0.44934107    1.5338652    1.9945189    0.3006771 
11720000   0.97001851 -0.00010768335   0.52743216 0.0072742816            0   0.52015788    1.4429025    1.9703347   -1.7052569 
11725000   0.97855686 5.840401e-05   0.52063431   0.01109847            0   0.50953584    1.4556033    1.9762376    3.9697612 
11730000   0.93817666 8.1687944e-05    0.5640604  0.016663728            0   0.54739667    1.3955378    1.9595982      4.74788 
11735000   0.98572329 0.00011005026   0.46614474 0.0062090153            0   0.45993572    1.4662634    1.9324081    5.6887903 
11740000   0.98244189 -0.00011697779   0.43986939 0.0088778772            0   0.43099151    1.4613823    1.9012517     -2.09159 
11745000    0.9145827 -8.0272344e-05   0.55124431  0.014473903            0   0.53677041    1.3604418    1.9116861  -0.82827662 
11750000   0.95092426 -3.0055749e-06   0.50584749  0.066794454            0   0.43905303    1.4144998    1.9203473     1.817757 
11755000   0.94035523 9.9900797e-05   0.51587374  0.039310292            0   0.47656345    1.3987784    1.9146522    5.3245994 
11760000   0.99832032 0.00015334376   0.42013812  0.020278852            0   0.39985927    1.4850015    1.9051396    7.1392734 
11765000   0.93810691 4.0427654e-05   0.52333172  0.011611906            0   0.51171981     1.395434    1.9187657    3.2986963 
11770000   0.97558842 -6.1760746e-05   0.45989424 0.0090075455            0    0.4508867    1.4511878     1.911082  -0.19701811 
11775000   0.97520877 6.8841175e-05   0.43781763  0.011584091            0   0.42623354     1.450623    1.8884407    4.2382194 
11780000   0.93387207 5.5491257e-05   0.50121302 0.0098080105            0   0.49140501    1.3891347    1.8903477    3.7844493 
11785000   0.88169017 3.3242797e-05   0.54757192  0.025384898            0   0.52218702    1.3115141     1.859086    2.9937735 
11790000   0.95122542 0.00013320395   0.44921795  0.024401891            0   0.42481605    1.4149478    1.8641658    6.4108606 
11795000   0.94251332 -6.1352715e-05   0.45753486 0.0051393517            0   0.45239551    1.4019886    1.8595234  -0.23464925 
11800000   0.89564131 -2.8255692e-05   0.50751197  0.016147452            0   0.49136452    1.3322664    1.8397784   0.87531746 
11805000   0.92512784 -0.00011849945   0.48237621    0.0210127            0   0.46136351    1.3761277    1.8585039   -2.1862775 
11810000   0.92464668 -0.00017091369   0.48426893 0.0081010763            0   0.47616785    1.3754119    1.8596809    -3.974173 
11815000   0.90248126 6.1472811e-05   0.50235865  0.015352335            0   0.48700631    1.3424409    1.8447995    3.9430715 
11820000   0.90339368 -0.00010630617   0.53027454  0.023621236            0   0.50665331    1.3437981    1.8740726   -1.7545114 
11825000   0.92172329 -8.1542342e-05   0.50888307 0.0076223458            0   0.50126073    1.3710634    1.8799465  -0.90336548 
11830000   0.96964469 5.3621469e-05   0.45782842  0.022845597            0   0.43498282    1.4423465    1.9001749    3.7304544 
11835000   0.97067242 -2.7540084e-05    0.4441777  0.041953741            0   0.40222396    1.4438752    1.8880529   0.94801808 
11840000   0.96263874 -6.0165811e-05    0.4556737  0.036305819            0   0.41936788    1.4319251    1.8875988  -0.16606085 
11845000   0.98690846 -9.1615122e-05    0.4541799  0.011059975            0   0.44311993    1.4680263    1.9222062   -1.2049232 
11850000   0.93841204 -8.594534e-05   0.50891795 0.0021319037            0   0.50678604    1.3958879    1.9048059   -1.0287951 
11855000   0.90833094 -5.7657158e-05   0.56991962  0.006435041            0   0.56348458    1.3511423    1.9210619 -0.046969092 
11860000   0.97993417 0.00015816369   0.48555891  0.011203741            0   0.47435517    1.4576521     1.943211    7.3418649 
11865000   0.94225261 0.00019711794   0.52577839  0.017615471            0   0.50816292    1.4016008    1.9273791    8.6556716 
11870000    1.0025043  7.92806e-05   0.43667703  0.030148296            0   0.40652873    1.4912251    1.9279022    4.6340133 
11875000   0.99419252 0.00017341356   0.45799725  0.017345533            0   0.44065172    1.4788614    1.9368586    7.8560415 
11880000   0.95416667 0.00012686508   0.51392338 0.0066358394            0   0.50728754    1.4193229    1.9332463    6.2635744 
11885000   0.99593391 -1.6535289e-05   0.46295952 0.00036322062            0    0.4625963    1.4814517    1.9444112    1.3800067 
11890000    0.9813095 7.6839193e-05    0.4909425 0.0031927465            0   0.48774975    1.4596979    1.9506404    4.5734182 
11895000   0.88560463 2.4832589e-05   0.63327547 0.0062053476            0   0.62707012    1.3173369    1.9506124    2.7982314 
11900000     1.033653 -7.7076516e-05   0.42657472 0.0020565211            0    0.4245182    1.5375588    1.9641335  -0.66674488 
11905000    1.0383143 -3.7708367e-05   0.40998154 0.0092831459            0    0.4006984    1.5444926    1.9544741   0.66736187 
11910000   0.97453451 4.5639611e-05   0.50761851  0.021649701            0   0.48596881    1.4496201    1.9572386    3.5150707 
11915000    1.0216229 2.2273285e-05   0.44076511  0.016707738            0   0.42405737    1.5196641    1.9604292    2.7206907 
11920000   0.95353983 -2.6472483e-05   0.53320423  0.019297429            0    0.5139068    1.4183905    1.9515947    1.0480006 
11925000     1.024636 -6.8932368e-05    0.4147817  0.011699924            0   0.40308178     1.524146    1.9389277  -0.41396383 
11930000   0.95839085 -6.138387e-06   0.50919383 0.0033034498            0   0.50589038    1.4256064    1.9348002    1.7252766 
11935000   0.96170422 3.6657094e-05   0.50601789 0.0041140322            0   0.50190386     1.430535    1.9365529    3.1877817 
11940000     1.008115 8.1913244e-05   0.42396433 0.0063366433            0   0.41762769    1.4995711    1.9235354    4.7195075 
11945000   0.86900635 -4.3484038e-05   0.58839977  0.011036414            0   0.57736336    1.2926469    1.8810467   0.39679155 
11950000   0.97624102 -0.0001318384    0.4372561 0.0083632382            0   0.42889287    1.4521585    1.8894146   -2.6106694 
11955000   0.91145994 8.3968615e-05     0.525521  0.013275893            0   0.51224511    1.3557967    1.8813177    4.7474464 
11960000   0.94813352 -1.0375396e-05   0.48083232 0.0024535506            0   0.47837877    1.4103486    1.8911809    1.5370341 
11965000   0.90478448 6.1315477e-05   0.56743605  0.013722169            0   0.55371388    1.3458669     1.913303    4.0062046 
11970000    0.9386995 3.9880459e-05   0.48304211  0.016937056            0   0.46610505    1.3963155    1.8793576    3.2406106 
11975000    0.9252529 7.3710135e-05   0.51733854  0.013564255            0   0.50377429    1.3763137    1.8936522    4.4096248 
11980000   0.95352949 3.3730193e-05   0.47520004  0.024409013            0   0.45079102    1.4183751    1.8935752    3.0448991 
11985000   0.95048238 -8.7577072e-05   0.44854871  0.018932743            0   0.42961597    1.4138425    1.8623912   -1.1269062 
11990000   0.95289841 -0.00020193083   0.46132315 0.0078683179            0   0.45345484    1.4174364    1.8787595   -5.0138127 
11995000   0.89253331 -7.6637677e-05   0.56419167 0.0094400837            0   0.55475158    1.3276433     1.891835  -0.72406442 
12000000   0.95947656 -2.7932326e-05   0.46039185  0.016103069            0   0.44428878    1.4272214    1.8876132   0.93418984 
12005000    0.9424622 -0.00010252601   0.49624761  0.038713615            0     0.457534    1.4019125    1.8981601   -1.6013942 
12010000   0.94220256 -6.5130973e-05   0.48295187   0.02099111            0   0.46196076    1.4015263    1.8844782  -0.33865902 
12015000   0.92149592 -7.4046557e-05   0.54276522  0.011302599            0   0.53146262    1.3707252    1.9134904  -0.61396542 
12020000   0.99222439 -0.0001202811   0.43187904  0.005138406            0   0.42674064    1.4759338    1.9078128   -2.1977821 
12025000   0.94039669 5.5248121e-06   0.50604149  0.011269536            0   0.49477195    1.3988401    1.9048816    2.0934618 
12030000   0.94146587 2.8501831e-05   0.48010207  0.013685921            0   0.46641615    1.4004305    1.8805326    2.8533951 
12035000   0.93837521 -7.2078903e-05   0.47923925  0.015796473            0   0.46344278    1.3958331    1.8750724  -0.58522085 
12040000    0.9578606 5.6811226e-06   0.44089335  0.013310849            0    0.4275825    1.4248176     1.865711    2.0596266 
12045000   0.93127088 -8.4231071e-05   0.46282951 0.0095119412            0   0.45331757    1.3852654    1.8480949   -1.0269923 
12050000   0.89706199 -0.0001313483   0.49288644  0.007985471            0   0.48490097    1.3343797    1.8272662    -2.656089 
12055000   0.90737524 -8.3542436e-05    0.4978138  0.010557987            0   0.48725581    1.3497207    1.8475345   -1.0040473 
12060000   0.90630404 -3.3091024e-05   0.49457345  0.010928061            0   0.48364538    1.3481273    1.8427007   0.71319375 
12065000   0.93846075 0.00010669344   0.46030791  0.014882466            0   0.44542545    1.3959604    1.8562683    5.4980709 
12070000   0.91220012 -9.0835356e-06   0.50974306   0.01828256            0    0.4914605    1.3568977    1.8666407    1.5565894 
12075000   0.92392082 -4.9947061e-05    0.4862283  0.013253009            0   0.47297529    1.3743322    1.8605605   0.15570082 
12080000   0.96335487 -9.6626521e-05   0.43355969  0.026279161            0   0.40728053    1.4329904    1.8665501   -1.4316352 
12085000   0.95236297 -5.5568474e-05   0.44621191  0.020846316            0   0.42536559    1.4166399    1.8628518 -0.033885427 
12090000   0.91708033 1.4308811e-05   0.49332983  0.038504038            0   0.45482579     1.364157    1.8574868    2.3458942 
12095000   0.96142625 3.0875307e-05   0.41547741  0.056106113            0   0.35937129    1.4301215     1.845599    2.8994761 
12100000   0.90872049 0.00011712823   0.49251485  0.023845038            0   0.46866981    1.3517217    1.8442366    5.8422135 
12105000   0.95042718 0.00010132167   0.42744728  0.013007082            0    0.4144402    1.4137604    1.8412077     5.299654 
12110000   0.90545576 0.00011738293   0.47541429  0.011412602            0   0.46400169    1.3468654    1.8222797    5.8289504 
12115000    0.9180884 2.5295677e-05   0.44452934  0.018637957            0   0.42589138    1.3656565    1.8101858    2.6736116 
12120000   0.90767731 9.1749264e-05   0.46190255  0.012096604            0   0.44980595      1.35017    1.8120725    4.9437808 
12125000   0.89184503 -1.757231e-05   0.46934337  0.032019008            0   0.43732436    1.3266195    1.7959629    1.1961613 
12130000    0.9336431 -6.333582e-05   0.41216742   0.01213279            0   0.40003463    1.3887941    1.8009615  -0.36090112 
12135000    0.8931472 8.7754135e-05   0.48289751  0.022913264            0   0.45998425    1.3285565     1.811454    4.8067951 
12140000   0.95334292 -5.8879865e-05   0.40156194  0.014409963            0   0.38715198    1.4180976    1.8196595  -0.19010651 
12145000   0.93112156 -0.00011449193   0.45303396 0.0063108407            0   0.44672312    1.3850433    1.8380773   -2.0699141 
12150000   0.98365983 4.4351568e-05   0.36910221  0.024989947            0   0.34411226     1.463194    1.8322962     3.346163 
12155000   0.88712184 3.1399127e-05   0.49647422  0.012129775            0   0.48434444    1.3195937     1.816068    2.8878248 
12160000   0.90774225 2.2235766e-05   0.47559251  0.019750405            0   0.45584211    1.3502666    1.8258591    2.5848399 
12165000   0.94005619 9.5957036e-05   0.42105177  0.016275984            0   0.40477579    1.3983336    1.8193854    5.0947189 
12170000   0.90919519 -2.2139037e-05   0.44631381  0.011501855            0   0.43481195    1.3524278    1.7987416    1.0430625 
12175000   0.89320035 -8.3898294e-05    0.4653113  0.006588638            0   0.45872266    1.3286355    1.7939468   -1.0697816 
12180000   0.89121846 5.7485254e-05   0.46078806   0.01618597            0   0.44460209    1.3256875    1.7864755    3.7486388 
12185000   0.92633787 5.3003453e-05   0.42389313  0.011601737            0   0.41229139    1.3779276    1.8018207    3.6110052 
12190000   0.89433176 -1.0490473e-05   0.48137495 0.0081409447            0   0.47323401    1.3303185    1.8116934    1.4536186 
12195000   0.93546588 9.2976465e-05   0.42898415  0.014575334            0   0.41440882    1.3915055    1.8204897    4.9940863 
12200000   0.91816306 0.00011614141   0.46444772  0.013257854            0   0.45118987    1.3657675    1.8302153    5.7945088 
12205000   0.87686713 3.5790942e-05   0.52940875  0.012716974            0   0.51669178    1.3043399    1.8337486    3.0554128 
12210000   0.93696366 0.00010185551   0.43952025  0.020541277            0   0.41897897    1.3937334    1.8332537    5.3099219 
12215000    0.9478702 0.00017857411   0.41853264   0.02926556            0   0.38926708    1.4099569    1.8284896     7.923819 
12220000   0.92817261 0.00019237724   0.46391046  0.011979257            0    0.4519312    1.3806568    1.8445672    8.4110435 
12225000   0.89458848 3.2101503e-05   0.51644355  0.030150586            0   0.48629296    1.3307004    1.8471439    2.9428752 
12230000   0.95000514 2.5081286e-05   0.43656776  0.030505468            0   0.40606229    1.4131326    1.8497004    2.7058083 
12235000   0.97550091 0.00014784231    0.3998962   0.01578024            0   0.38411596    1.4510576    1.8509538    6.8973046 
12240000   0.96185099 7.0896201e-05   0.42925909  0.029293553            0   0.39996554    1.4307534    1.8600124    4.2799361 
12245000   0.94770759 -5.1598228e-05   0.41377601  0.012498547            0   0.40127746     1.409715     1.823491  0.062271542 
12250000   0.87148591 -0.00015957458   0.52479727  0.004764216            0   0.52003306    1.2963353    1.8211326   -3.6256799 
12255000   0.94631025 -8.7163583e-05    0.4258251 0.0083255786            0   0.41749952    1.4076365    1.8334616    -1.141722 
12260000   0.86480186 0.0001319159   0.53512323  0.012851738            0   0.52227149    1.2863928     1.821516    6.3242454 
12265000   0.91665745 -1.8658991e-05   0.43777489  0.016888005            0   0.42088688     1.363528    1.8013028    1.1644093 
12270000   0.88745354 -0.0001993792   0.47101634  0.010575074            0   0.46044127    1.3200871    1.7911035   -5.0143732 
12275000     0.892849 -8.4809165e-05   0.46886878  0.013011851            0   0.45585693    1.3281129    1.7969817   -1.0978378 
12280000   0.89852768 2.0789835e-05   0.46533579  0.014658234            0   0.45067756    1.3365599    1.8018957    2.5115221 
12285000   0.94682917 -5.0652368e-05   0.39506423  0.027725588            0   0.36733865    1.4084084    1.8034726   0.07453848 
12290000   0.85400892 -0.00017822373   0.54272542  0.036000503            0   0.50672492    1.2703383    1.8130637   -4.2703062 
12295000   0.94256559 -0.00010945301   0.43511657  0.011715131            0   0.42340144    1.4020663    1.8371829   -1.8988131 
12300000   0.92926539 4.9782687e-05   0.45819399 0.0063165949            0   0.45187739    1.3822823    1.8404763    3.5397253 
12305000   0.95407496 3.4813818e-05   0.42762242  0.040205856            0   0.38741657    1.4191865    1.8468089    3.0351206 
12310000   0.95484879  4.51122e-05    0.4483045  0.011353028            0   0.43695147    1.4203376    1.8686421    3.4084718 
12315000   0.99117753 0.00016057257   0.38520286  0.010631616            0   0.37457124    1.4743766    1.8595794    7.3404565 
12320000   0.89283009 -5.5471768e-05   0.51136595  0.019411977            0   0.49195397    1.3280848    1.8394507 -0.053985632 
12325000    0.9502497 -0.00011373787   0.43865635   0.01898947            0   0.41966688    1.4134964    1.8521528      -2.0301 
12330000    0.9798852 9.709443e-05   0.38430823 0.0094427155            0   0.37486552    1.4575792    1.8418875     5.156044 
12335000   0.89528946 4.9309391e-05   0.51648079 0.0012990886            0    0.5151817    1.3317431    1.8482239    3.5313177 
12340000   0.91084117 7.677703e-05    0.4877326  0.011473032            0   0.47625956    1.3548762    1.8426088    4.4632648 
12345000   0.89676603 0.00010666139   0.49777647  0.028705501            0   0.46907097    1.3339395    1.8317159    5.4724249 
12350000    0.9111749 -4.5579048e-05    0.4788712  0.031661333            0   0.44720987    1.3553727    1.8342439   0.27847901 
12355000    0.9005395 -5.1748735e-05   0.49620288  0.024443724            0   0.47175915    1.3395525    1.8357554  0.069398573 
12360000   0.90118564 5.8604196e-05   0.46862564  0.036732413            0   0.43189323    1.3405136    1.8091393    3.8094958 
12365000   0.95253526 9.4609864e-05   0.39872963  0.017730159            0   0.38099947    1.4168962    1.8156258    5.0449759 
12370000   0.86351656 9.4704384e-06   0.52732928  0.021311934            0   0.50601735    1.2844809    1.8118102    2.1350678 
12375000   0.88583033 -0.0001568931   0.50175243  0.013404615            0   0.48834781    1.3176726     1.819425   -3.5358596 
12380000   0.88084233 -9.4098039e-05   0.50677722 0.0030129491            0   0.50376428     1.310253    1.8170302   -1.3948495 
12385000   0.93608453 -5.3146681e-05   0.43990611  0.013849273            0   0.42605683    1.3924257    1.8323318  0.018258478 
12390000   0.95551005 -1.4414319e-05   0.42396627  0.030150313            0   0.39381595    1.4213212    1.8452875    1.3532787 
12395000   0.90686084 5.1591627e-05   0.47139899  0.012663424            0   0.45873556    1.3489555    1.8203545    3.5813487 
12400000    0.8715033 -5.6773555e-05   0.53092827  0.015917707            0   0.51501057    1.2963612    1.8272894  -0.11058126 
12405000   0.92901755 3.5377664e-05   0.44038869  0.010109587            0    0.4302791    1.3819136    1.8223023    3.0298599 
12410000    0.8893296 -3.8919572e-05   0.51336909  0.019239099            0   0.49412999    1.3228778    1.8362469   0.50779214 
12415000   0.90741342 -0.00015059579   0.49077313  0.013295417            0   0.47747771    1.3497775    1.8405506   -3.2997856 
12420000    0.9369953 -0.00011199256   0.43856059  0.034047776            0   0.40451281    1.3937805    1.8323411   -1.9903384 
12425000   0.91509811 -9.4960898e-05   0.45865034  0.038620387            0   0.42002995    1.3612084    1.8198588   -1.4214732 
12430000   0.89989769 -5.1574051e-05   0.47970489 0.0096956211            0   0.47000927    1.3385978    1.8183027  0.057908434 
12435000   0.89114423 6.1970813e-06   0.51351796  0.023374284            0   0.49014367     1.325577     1.839095     2.050622 
12440000   0.89921873 4.4095315e-05   0.49630479  0.020586601            0   0.47571819    1.3375879    1.8338927    3.3390127 
12445000   0.94072677 -1.4259627e-05   0.45720977  0.012090447            0   0.44511932    1.3993311    1.8565408    1.3698122 
12450000   0.91389463 4.4039439e-05   0.49642123  0.012669037            0   0.48375219    1.3594183    1.8558395    3.3590523 
12455000   0.85014805 1.660467e-05   0.60727356   0.01597225            0   0.59130131    1.2645952    1.8718688    2.4386415 
12460000   0.93121051 -2.8582411e-05   0.49631825   0.02104256            0   0.47527569    1.3851756    1.8814939   0.90588092 
12465000   0.94487722 -1.5620583e-06   0.50110497  0.026663121            0   0.47444185    1.4055049    1.9066098    1.8532916 
12470000   0.91252327 4.7680372e-05   0.57165958  0.028288709            0   0.54337087    1.3573784    1.9290379     3.556528 
12475000   0.94395828 1.7456239e-05   0.50355067  0.017773754            0   0.48577691    1.4041379    1.9076886    2.5035283 
12480000   0.97072278 -6.8522125e-05   0.48027443 0.0099148001            0   0.47035963    1.4439501    1.9242246  -0.41466395 
12485000   0.98947643 -0.00010845342   0.44590103 0.0098431024            0   0.43605793    1.4718462    1.9177472   -1.7841294 
12490000   0.97857332 -0.00013470204   0.46899706 0.0099635327            0   0.45903353    1.4556278    1.9246249   -2.6732048 
12495000   0.96895817 -1.6236626e-05   0.50970524 0.0079911016            0   0.50171414    1.4413253    1.9510305    1.3968203 
12500000   0.97195866 -5.5197216e-05   0.47914041  0.044162654            0   0.43497776    1.4457885    1.9249289  0.040863943 
12505000   0.95148857 6.9065727e-06   0.52331444  0.027375558            0   0.49593888    1.4153392    1.9386537     2.174398 
12510000     0.991782 -1.409781e-05   0.46641419  0.011489395            0   0.45492479    1.4752757    1.9416899    1.4604847 
12515000   0.95163898 -3.5719971e-05   0.51137357  0.014628614            0   0.49674496     1.415563    1.9269366   0.70769489 
12520000   0.99759553 5.1838785e-05   0.44680799  0.026642046            0   0.42016594    1.4839234    1.9307313    3.7001619 
12525000   0.96815692 -0.00012090201   0.50146894  0.019914977            0   0.48155397    1.4401334    1.9416024   -2.1851862 
12530000    0.9845299 -0.00010651088   0.48021904  0.010486024            0   0.46973302    1.4644882    1.9447073   -1.6908642 
12535000   0.93808651 3.5067689e-05   0.53734538 0.0055895095            0   0.53175587    1.3954037    1.9327491    3.1297262 
12540000    0.9544258 -7.685375e-05    0.4920909 0.0077914778            0   0.48429943    1.4197084    1.9117993  -0.71147538 
12545000   0.97469872 -1.8045795e-05   0.47303498  0.021291604            0   0.45174338    1.4498643    1.9228993    1.3069362 
12550000   0.96876845 8.5131634e-05   0.48695723  0.012040186            0   0.47491704    1.4410431    1.9280003    4.8338267 
12555000    0.9402378 -0.00011895775   0.49306154 0.0045699845            0   0.48849155    1.3986037    1.8916653   -2.1687592 
12560000   0.97305756 -1.0153611e-05   0.46706498  0.016199326            0   0.45086566    1.4474231    1.9144881    1.5679115 
12565000   0.88594382 0.0001119937   0.58746332  0.043739807            0   0.54372351    1.3178414    1.9053047     5.728023 
12570000    0.9977592 5.5770716e-05   0.42407468  0.016862732            0   0.40721195    1.4841668    1.9082415    3.8118819 
12575000   0.92416938 6.0544711e-05   0.53835106 0.0095480872            0   0.52880298     1.374702     1.913053    3.9796458 
12580000   0.91427066 -2.1178586e-05   0.54668017  0.014900956            0   0.53177921    1.3599776    1.9066578     1.183762 
12585000     0.933655 -0.00012377185   0.50136558  0.021214589            0   0.48015099    1.3888118    1.8901774   -2.3345685 
12590000   0.94869401 -0.00012619485   0.48689766  0.032623058            0   0.45427461    1.4111823      1.89808   -2.4093709 
12595000     0.926424 4.652318e-05   0.52859996  0.019760903            0   0.50883905    1.3780557    1.9066557    3.4946469 
12600000   0.91590382 7.7511121e-05   0.54739247 0.0068085434            0   0.54058392    1.3624069    1.9097994    4.5555123 
12605000   0.90155568 1.9032973e-05   0.52596755  0.019117112            0   0.50685044    1.3410641    1.8670316    2.5166905 
12610000    0.8638642 -0.00011593576   0.61375284   0.02440284            0      0.58935     1.284998    1.8987508   -2.0585232 
12615000    0.9267658 -0.00011129094   0.50651424  0.012358942            0    0.4941553    1.3785641    1.8850784   -1.9136524 
12620000   0.90461555 4.0011838e-05   0.52376999  0.020690226            0   0.50307977    1.3456156    1.8693856     3.235123 
12625000   0.88026244 7.2042604e-05   0.57856366  0.021252299            0   0.55731136    1.3093904     1.887954    4.3470083 
12630000   0.90274728 4.5763453e-05   0.53676167  0.038893598            0   0.49786807    1.3428366    1.8795982    3.4416574 
12635000     0.928846 -1.1129672e-05   0.52802261  0.041805996            0   0.48621661    1.3816584     1.909681    1.5297882 
12640000   0.89794544 -0.00012669691   0.57909029  0.020135052            0   0.55895524    1.3356938    1.9147841   -2.4098036 
12645000   0.91382775 -3.7817317e-05    0.5517734  0.015640072            0   0.53613333    1.3593188    1.9110922    0.6202611 
12650000   0.94291501 4.9987173e-05    0.5162937  0.019483456            0   0.49681024    1.4025861    1.9188798    3.6251086 
12655000   0.92144619 4.4139128e-05   0.52443314  0.026469857            0   0.49796328    1.3706512    1.8950843    3.4016999 
12660000    0.8473232 -1.2705387e-07   0.62733269 0.0067885316            0   0.62054416    1.2603933    1.8877259    1.8833892 
12665000   0.86870456 3.3081269e-05   0.61178158  0.014347188            0   0.59743439     1.292198    1.9039796    3.0331536 
12670000   0.90574203 4.4416838e-05   0.54710439  0.020452159            0   0.52665223    1.3472913    1.8943957    3.4104904 
12675000   0.99186581 7.4510599e-05   0.40594264 0.0095267032            0   0.39641593    1.4754004     1.881343    4.4246381 
12680000   0.90646733 1.3642055e-05   0.54610501  0.014237448            0   0.53186756    1.3483702    1.8944752     2.360124 
12685000   0.87815933 -7.1848251e-05     0.587754  0.039884692            0   0.54786931     1.306262     1.894016   -0.5584043 
12690000   0.93396047 2.7561321e-05   0.51352728  0.034207985            0   0.47931929    1.3892662    1.9027935    2.8435532 
12695000   0.90038206 0.00011330174   0.56456515  0.018288673            0   0.54627648    1.3393183    1.9038835    5.7712495 
12700000   0.87033812 5.983531e-05   0.59979132  0.022978372            0   0.57681295    1.2946279    1.8944193    3.9367978 
12705000   0.97478681 0.00015661047   0.46414065  0.023243685            0   0.44089696    1.4499954     1.914136    7.2597735 
12710000   0.92528572 0.0001502362   0.56750146  0.015440877            0   0.55206058    1.3763625     1.943864    7.0719263 
12715000   0.98429907 -3.132507e-05    0.4691916 0.0057529765            0   0.46343862    1.4641449    1.9333365    0.8641074 
12720000   0.88301897 -3.2828675e-05   0.60263832  0.051714306            0   0.55092401    1.3134907     1.916129   0.79557692 
12725000    0.9356807 -1.8375525e-06   0.49886843  0.017386892            0   0.48148154     1.391825    1.8906935    1.8279717 
12730000   0.89540797 3.3244585e-05   0.57623581  0.046119684            0   0.53011612    1.3319194    1.9081552    3.0429037 
12735000   0.99330281 -4.6554294e-05   0.42336598 0.0031374216            0   0.42022856    1.4775379    1.9009039   0.31185068 
12740000   0.92869091 -7.6531454e-05   0.53090672  0.017009669            0   0.51389705    1.3814277    1.9123344  -0.69993918 
12745000   0.89787494 -8.0560769e-05   0.58187685  0.060709425            0   0.52116743     1.335589    1.9174658  -0.83234177 
12750000   0.94364943 -8.1114902e-05   0.49454815  0.037260948            0    0.4572872    1.4036785    1.8982267  -0.87049531 
12755000   0.94464434 -0.00017756534   0.52685715  0.028438747            0    0.4984184    1.4051585    1.9320156   -4.1288812 
12760000    1.0025413 -5.4796482e-05   0.44717253  0.029549364            0   0.41762316    1.4912802    1.9384527  0.068066124 
12765000   0.95198384 0.00010500466    0.5254619  0.010554124            0   0.51490778     1.416076    1.9415379    5.5256968 
12770000    0.9346007 6.813087e-06   0.58432876  0.019762831            0   0.56456593    1.3902185    1.9745473    2.2071007 
12775000   0.99110773 -3.6400932e-05   0.50828161   0.01694425            0   0.49133736    1.4742728    1.9825544   0.74006923 
12780000    1.0020845 -2.3242104e-05    0.4960739 0.0066766798            0   0.48939722    1.4906007    1.9866746    1.1933441 
12785000   0.98088854 -0.00015356668   0.50854706 0.0088812879            0   0.49966577    1.4590717    1.9676188   -3.2741238 
12790000     0.962903 -6.8931043e-05   0.54238291   0.02574531            0    0.5166376    1.4323182    1.9747011  -0.37814516 
12795000    1.0036596 -5.9379766e-05   0.48712673  0.032451844            0   0.45467489    1.4929437    1.9800705 -0.046758906 
12800000    0.9842871 0.0001335902   0.52858585  0.032829509            0   0.49575634    1.4641271    1.9927129    6.5525917 
12805000    1.0140335 0.00013340254   0.49412222   0.02582208            0   0.46830014    1.5083748     2.002497    6.5559706 
12810000   0.94045043 -6.5971245e-06   0.60036425  0.026911148            0    0.5734531      1.39892    1.9992843    1.7741024 
12815000   0.96520971 0.00011747941   0.55194369  0.017414077            0   0.53452961    1.4357494    1.9876931    5.9976571 
12820000    1.0096825 0.00015541283   0.49669162  0.018226461            0   0.47846516    1.5019026    1.9985943    7.3033523 
12825000    1.0404723 -7.020612e-05   0.48413215  0.021516658            0   0.46261549    1.5477025    2.0318347   -0.3645342 
12830000    0.9918581 -0.00015365849   0.54787007  0.025692618            0   0.52217746    1.4753889     2.023259   -3.2216173 
12835000    1.0556699 4.0083743e-05   0.45533613  0.019589152            0   0.43574698     1.570309    2.0256452    3.3938369 
12840000   0.92163533 0.00018549033   0.65749234  0.044963431            0    0.6125289    1.3709326    2.0284249    8.3598282 
12845000    0.9812423 5.3029281e-05   0.56197442   0.02197913            0   0.53999529    1.4595979    2.0215723    3.8316385 
12850000    1.0426928 -5.9026218e-05   0.46636964  0.012197132            0   0.45417251    1.5510055    2.0173751 0.0026135385 
12855000    1.0396881 -7.8343085e-05   0.44603165  0.013161455            0    0.4328702    1.5465361    1.9925678  -0.68154287 
12860000    0.9154594 -0.00017988294   0.60989935  0.029128973            0   0.58077038    1.3617459    1.9716452    -4.168359 
12865000   0.96240033 -0.00019168595   0.55673409  0.030354827            0   0.52637926    1.4315705    1.9883046   -4.5545759 
12870000    0.9875531 0.00014794621   0.52607295  0.015316831            0   0.51075611    1.4689852    1.9950582    7.0449555 
12875000    1.0043716 0.00020845319   0.47787302   0.03638084            0   0.44149218    1.4940028    1.9718758    9.0870781 
12880000    0.9645283 1.8424479e-05   0.53626873  0.052630297            0   0.48363843    1.4347359    1.9710046    2.5998935 
12885000   0.94235382 -0.00012329018   0.58552281  0.040534026            0   0.54498878    1.4017513    1.9872741   -2.2210307 
12890000    1.0469102 -6.3607224e-05   0.44593961 0.0031693401            0   0.44277027     1.557279    2.0032186  -0.16790798 
12895000     0.988655 5.0716165e-05   0.54057164 0.0043957909            0   0.53617585    1.4706243     2.011196    3.7423077 
12900000   0.94828571 7.9477037e-05   0.60688949  0.012364517            0   0.59452497     1.410575    2.0174645    4.7302807 
12905000   0.99350738 -1.4399113e-05   0.52599769  0.011386494            0   0.51461119    1.4778422    2.0038399    1.5123502 
12910000   0.93701117 -8.9567057e-05   0.58826499 0.0078852251            0   0.58037977    1.3938041    1.9820691   -1.0751531 
12915000    1.0233085 -1.9977548e-05   0.45350125 0.0057525642            0   0.44774868    1.5221715    1.9756727    1.2937724 
12920000   0.96701203 -8.5730487e-06    0.5482072  0.018570882            0   0.52963632    1.4384304    1.9866376    1.6940109 
12925000   0.99988119 7.8290263e-06   0.51418208  0.015146147            0   0.49903593    1.4873233    2.0015053    2.2687361 
12930000    1.0205757 6.9849989e-05   0.47445143 0.0074685063            0   0.46698293    1.5181064    1.9925578    4.3767708 
12935000    1.0580177 3.3622115e-05   0.45024317  0.020146648            0   0.43009652    1.5738013    2.0240444    3.1716793 
12940000    1.0003299 6.9555464e-05   0.55040977  0.035898193            0   0.51451158    1.4879907    2.0384004    4.4125603 
12945000     1.019814 5.8821215e-05   0.53826939  0.026346465            0   0.51192293    1.5169733    2.0552427    4.0630068 
12950000    1.0079423 -0.00017386044   0.56627106 0.0095739423            0   0.55669712    1.4993142    2.0655853   -3.8688511 
12955000    1.0559717 4.6138412e-05   0.50177119 0.0084110551            0   0.49336014    1.5707579    2.0725291    3.6473869 
12960000    1.0053236 4.1477746e-05   0.55973216  0.023800478            0   0.53593168    1.4954188    2.0551509    3.4709247 
12965000    1.0526846 -1.211353e-05   0.50325483  0.020463677            0   0.48279115    1.5658683    2.0691231    1.6556479 
12970000    1.0264029 0.00014523797   0.54209353  0.027179963            0   0.51491357    1.5267743    2.0688678    7.0263238 
12975000   0.98675958 -0.00015902318   0.58281701  0.013375211            0    0.5694418    1.4678049    2.0506219   -3.3773694 
12980000     1.036277 8.0261031e-05   0.51113999  0.014490037            0   0.49664996     1.541462     2.052602    4.7921785 
12985000    1.0529404 1.2252849e-05   0.47385653  0.019045025            0    0.4548115    1.5662488    2.0401053    2.4583359 
12990000   0.94290705 -7.6952184e-05   0.61204441  0.033719412            0     0.578325    1.4025742    2.0146187  -0.61201591 
12995000    1.0192483 3.0158704e-05   0.51288293  0.021270173            0   0.49161275    1.5161319    2.0290148    3.0584319 
13000000    1.0484138 2.9890516e-05   0.49329644  0.011848508            0   0.48144793    1.5595156     2.052812    3.0730749 
13005000    1.0573954 -8.8012032e-05   0.49843302  0.022591773            0   0.47584125    1.5728756    2.0713087  -0.93283537 
13010000   0.99090087 6.1761284e-06   0.61565464  0.028621722            0   0.58703292     1.473965    2.0896197    2.3004315 
13015000    1.0508819 8.5782422e-05   0.52313803  0.023173415            0   0.49996462    1.5631869    2.0863249    5.0143649 
13020000    1.0341521 9.0914661e-05   0.54572312  0.022410278            0   0.52331284    1.5383012    2.0840243    5.1872447 
13025000    1.0173978 0.0001989916   0.58138521  0.023841218            0     0.557544    1.5133792    2.0947644    8.8870112 
13030000    1.0359016 1.3687234e-05   0.54949681  0.027503372            0   0.52199344    1.5409037    2.0904005    2.5575914 
13035000   0.99717887 -5.5526466e-05   0.59795735  0.035828796            0   0.56212856    1.4833036    2.0812609   0.18595756 
13040000   0.99590748 6.1591281e-06   0.59139391   0.02350329            0   0.56789062    1.4814124    2.0728063    2.2830379 
13045000    1.0169196 2.1373697e-06    0.5903882  0.016192052            0   0.57419615    1.5126679    2.1030561    2.1760117 
13050000    1.0312308 9.5527758e-05   0.56537407  0.016151566            0    0.5492225    1.5339559      2.09933    5.3600108 
13055000    1.0315604 1.8407947e-05   0.58423321  0.018332474            0   0.56590073    1.5344461    2.1186793    2.7470039 
13060000    1.0128477 -7.8813729e-05   0.59529759  0.017037412            0   0.57826018    1.5066109    2.1019085  -0.58826676 
13065000   0.98581036 -2.4687892e-05    0.6413867  0.017674705            0     0.623712    1.4663929    2.1077796    1.2650996 
13070000    1.0082175 -4.9132827e-05   0.59159054  0.028476196            0   0.56311435    1.4997236    2.0913141   0.41424695 
13075000    1.0624701 -0.00016131384   0.50711951  0.021447605            0    0.4856719    1.5804242    2.0875437   -3.4186354 
13080000    1.0487577 -6.0754244e-05   0.49674555  0.020128371            0   0.47661718    1.5600271    2.0567727 -0.016972166 
13085000    1.0478621 -7.3971467e-06   0.47317654  0.010694616            0   0.46248193    1.5586949    2.0318714    1.7793821 
13090000   0.95809003 1.6055561e-05   0.59461006  0.021390038            0   0.57322002    1.4251589     2.019769    2.5677988 
13095000   0.98993283 2.0093682e-05   0.56731235  0.017649574            0   0.54966278    1.4725251    2.0398374    2.7257018 
13100000    1.0345977 7.6922875e-05   0.50868409  0.019986803            0   0.48869728     1.538964    2.0476481    4.6732822 
13105000   0.91936752 0.00013852461   0.65639728  0.029771475            0   0.62662581    1.3675592    2.0239565    6.7522633 
13110000    1.0495908 1.1172812e-05   0.48400811  0.013529052            0   0.47047906    1.5612663    2.0452744    2.4266397 
13115000    1.0189096 -1.6879404e-05   0.53092497 0.0018090043            0   0.52911596    1.5156281     2.046553    1.4704027 
13120000    1.0383262 0.00012133526   0.48184322  0.030987519            0    0.4508557    1.5445102    2.0263534    6.1679302 
13125000    0.8919677 3.4030915e-06   0.68549109  0.023207714            0   0.66228338     1.326802    2.0122931    2.1284519 
13130000   0.99010884 -8.3108124e-05   0.54455163 0.0043607874            0   0.54019084    1.4727869    2.0173385  -0.81941876 
13135000    1.0010628 -7.1498766e-05   0.52022579  0.013004386            0    0.5072214    1.4890808    2.0093066  -0.43118459 
13140000    1.0026626 8.1978214e-05   0.52710892  0.026977408            0   0.50013151    1.4914606    2.0185695    4.8167592 
13145000   0.98390803 0.00014502082   0.56497895  0.027285016            0   0.53769393    1.4635632    2.0285421    6.9785861 
13150000   0.98026037 7.7775591e-05   0.58038759  0.017957107            0   0.56243048    1.4581373    2.0385249    4.6932651 
13155000   0.98434455 1.5493758e-05   0.57099032  0.029717614            0    0.5412727    1.4642125    2.0352028    2.5640564 
13160000   0.99545982 -0.00016097649   0.55063185  0.017902382            0   0.53272947    1.4807465    2.0313783   -3.4632859 
13165000    1.0303674 -0.00019378489   0.49268574  0.021316331            0   0.47136941    1.5326716    2.0253573    -4.589167 
13170000    1.0021513 8.2395262e-05   0.52458494  0.034874919            0   0.48971002       1.4907     2.015285    4.8277099 
13175000   0.96459005 0.00016576603   0.55653958  0.012852805            0   0.54368678    1.4348277    1.9913673    7.6495146 
13180000   0.96852115 2.2337901e-05   0.54909807  0.015701528            0   0.53339654    1.4406752    1.9897733    2.7522403 
13185000    0.9795514 4.4483017e-05   0.54342676  0.015414766            0   0.52801199    1.4570827    2.0005095    3.5188631 
13190000    1.0260466 -5.8816747e-05   0.46826989 0.0095180302            0   0.45875186    1.5262443    1.9945142  -0.01309744 
13195000   0.94737683 -9.5302136e-05   0.58080656  0.012460058            0    0.5683465     1.409223    1.9900296     -1.26295 
13200000    0.9524568 -5.9026693e-05   0.57381509  0.011759798            0   0.56205529    1.4167795    1.9905946 -0.024183207 
13205000   0.96318836 -7.639374e-05   0.56912917  0.033195966            0    0.5359332    1.4327427    2.0018719  -0.60570113 
13210000   0.88731959 -8.9336597e-06   0.68460906  0.041655652            0   0.64295341    1.3198879    2.0044969    1.6995614 
13215000    1.0110721 0.00010423937   0.50536193  0.022231696            0   0.48313024    1.5039698    2.0093317    5.5673687 
13220000    0.9889867 -7.8303588e-05   0.52940822  0.027108945            0   0.50229928    1.4711177    2.0005259  -0.67223655 
13225000    1.0384083 -0.0001014302   0.48948625  0.042254357            0   0.44723189    1.5446323    2.0341185   -1.4280323 
13230000   0.98774798 -1.2002382e-05   0.58343514  0.022229125            0   0.56120601    1.4692751    2.0527103     1.643029 
13235000    1.0168949 7.1828609e-05   0.55201575  0.018439307            0   0.53357644    1.5126311    2.0646469    4.5163967 
13240000    1.0026178 7.7095265e-05   0.55955968  0.024732147            0   0.53482753     1.491394    2.0509536     4.682472 
13245000    1.0318093 -0.00018889905   0.52169125  0.021955389            0   0.49973586    1.5348163    2.0565076   -4.3912466 
13250000     1.014311 -0.0001122643   0.52803221  0.022521909            0    0.5055103    1.5087876    2.0368198   -1.7951351 
13255000   0.97569903 9.8109394e-05   0.59197066  0.025190519            0   0.56678014    1.4513523     2.043323    5.3921236 
13260000    1.0097238 8.311065e-05   0.55419494  0.023004987            0   0.53118996    1.5019641    2.0561591    4.8930026 
13265000    1.0524656 -8.4863592e-05   0.47535462   0.01490026            0   0.46045436    1.5655426    2.0408972  -0.85578001 
13270000   0.98058454 -0.00010530628   0.58378449  0.010003707            0   0.57378078    1.4586195     2.042404   -1.5520504 
13275000   0.94216629 0.00015792039   0.63733718  0.014722015            0   0.62261517    1.4014724    2.0388095    7.4291588 
13280000   0.99156996 6.203544e-05   0.55091402   0.02534485            0   0.52556917    1.4749603    2.0258743    4.1433507 
13285000     1.056281 -1.1514007e-06   0.45211833  0.028311874            0   0.42380646     1.571218    2.0233364    1.9840352 
13290000     1.020984 9.6397923e-05   0.51748999  0.031258581            0   0.48623141    1.5187138    2.0362037    5.3265862 
13295000   0.95772642 -2.1292466e-06   0.64105345  0.041418894            0   0.59963456    1.4246181    2.0656715    1.9929932 
13300000    1.0099924 0.00019947604   0.56982875  0.036669817            0   0.53315893    1.5023637    2.0721924    8.8809745 
13305000    0.9944987 0.00012264569   0.57584628  0.032180276            0   0.54366601    1.4793168    2.0551631    6.2414693 
13310000    1.0030154 8.324919e-05   0.53855044  0.015132897            0   0.52341755    1.4919854    2.0305359    4.8721082 
13315000    1.0214514 6.5705486e-05   0.50915407 0.0049714653            0    0.5041826    1.5194089     2.028563    4.2713102 
13320000   0.96797922 -5.878112e-05   0.56546919 0.0035620387            0   0.56190715    1.4398691    2.0053383 -0.0010572834 
13325000   0.98449725 7.260429e-05   0.52552593 0.0058741934            0   0.51965174    1.4644397    1.9899656     4.468192 
13330000    1.0086106 5.1566072e-05   0.51430743  0.039659911            0   0.47464752    1.5003082    2.0146156    3.7747376 
13335000    1.0217022 -4.606863e-05   0.52856963 0.0048161004            0   0.52375353    1.5197821    2.0483517   0.47587577 
13340000   0.96676904 -8.9414849e-05    0.6354295  0.026016053            0   0.60941344    1.4380689    2.0734984   -0.9785284 
13345000   0.99825464 -6.6910728e-05   0.61756355  0.019168708            0   0.59839484    1.4849038    2.1024673  -0.18141886 
13350000    1.0608439 5.2790017e-05   0.48987929  0.011544687            0    0.4783346    1.5780052    2.0678845    3.8697838 
13355000    1.0263264 -0.00010732128   0.54292034  0.006186724            0   0.53673362    1.5266605    2.0695809   -1.5936522 
13360000   0.99157755 -3.7101421e-05   0.57999633  0.002655096            0   0.57734123    1.4749716    2.0549679   0.78857274 
13365000    1.0535393 1.4566591e-05    0.4897855 0.0013514525            0   0.48843404    1.5671397    2.0569252    2.5541315 
13370000    0.9797169 9.6949407e-05   0.59539247 0.0056647865            0   0.58972768    1.4573289    2.0527214    5.3619278 
13375000    1.0536805 6.6539012e-05   0.49937318  0.026061408            0   0.47331177    1.5673497    2.0667229    4.3379212 
13380000    1.0166295 9.6468411e-05   0.56413592  0.024360548            0   0.53977537    1.5122363    2.0763722    5.3691607 
13385000    1.0510319 2.534933e-06   0.51229091  0.039493831            0   0.47279708    1.5634099    2.0757009    2.1622266 
13390000   0.92334773 0.00011368731   0.67465653  0.031081159            0   0.64357538    1.3734798    2.0481363     5.928663 
13395000   0.97315706 0.00017368965   0.59103786    0.0176151            0   0.57342276    1.4475711     2.038609    7.9672159 
13400000    1.0450871 3.8195907e-06   0.48155538  0.011203568            0   0.47035181    1.5545671    2.0361225    2.1664978 
13405000   0.99107995 -0.00011710506   0.56743251  0.014718921            0   0.55271359    1.4742314    2.0416639    -1.955522 
13410000   0.96347745 -2.5107356e-05   0.61342913  0.021238552            0   0.59219058    1.4331727    2.0466018    1.1896041 
13415000    1.0529996 -5.3641314e-05   0.48091856  0.014066841            0   0.46685172    1.5663369    2.0472555   0.21629862 
13420000   0.98456212 -4.9854864e-05   0.57465502 0.0043678393            0   0.57028718    1.4645362    2.0391912   0.33747849 
13425000   0.96520658 1.1444564e-05   0.59926156 0.0069522667            0   0.59230929    1.4357448    2.0350063    2.4256474 
13430000   0.99780903 -0.0001063427   0.52716815   0.01215949            0   0.51500866    1.4842409    2.0114091   -1.6184217 
13435000    1.0527148 3.8912251e-05   0.46925681  0.015171426            0   0.45408538    1.5659133    2.0351701    3.3633749 
13440000   0.97466173 0.0001216119   0.55943678  0.037803318            0   0.52163346    1.4498093    2.0092461    6.1602655 
13445000   0.93314301 -2.6098406e-05   0.59397987   0.03696445            0   0.55701542    1.3880502    1.9820301    1.0912045 
13450000   0.96290889 2.6274993e-05   0.55106393  0.032158114            0   0.51890581     1.432327    1.9833909     2.880244 
13455000    1.0124885 -0.00011849359   0.49144591  0.015600088            0   0.47584582    1.5060767    1.9975226   -2.0470587 
13460000   0.97863845 -0.00013825229   0.53308114  0.011685937            0    0.5213952    1.4557247    1.9888058   -2.7302055 
13465000   0.99039095 4.3808506e-05   0.50903884 0.0095493472            0   0.49948949    1.4732065    1.9822454    3.4775757 
13470000   0.98104263 6.3967051e-05   0.52171516 0.0054570745            0   0.51625809    1.4593009    1.9810161    4.1644247 
13475000    1.0242213 -2.1603449e-05   0.47831219   0.01134894            0   0.46696325    1.5235291    2.0018413    1.2644436 
13480000    1.0035649 -3.668452e-05   0.52679178  0.015006002            0   0.51178577    1.4928028    2.0195946   0.76742964 
13485000    1.0098795 0.00013223176   0.51842449  0.012486666            0   0.50593782    1.5021957    2.0206202    6.5341311 
13490000    1.0414014 -6.1328683e-06   0.47920811  0.016466585            0   0.46274153    1.5490846    2.0282927    1.8189575 
13495000    1.0442319 -4.8544639e-05   0.48606645  0.026716527            0   0.45934992    1.5532949    2.0393613   0.38237098 
13500000   0.97504332 -5.7411578e-06   0.58003468  0.035227969            0   0.54480671    1.4503769    2.0304116    1.8344468 
13505000    1.0161404 5.1625978e-05   0.51624946  0.018178285            0   0.49807118    1.5115089    2.0277584    3.7899251 
13510000    1.0218671 9.6447929e-05   0.50145891 0.0084502866            0   0.49300863    1.5200273    2.0214863    5.3135756 
13515000    1.0162183  4.30922e-05   0.52126076 0.0077555862            0   0.51350517    1.5116247    2.0328854    3.5037659 
13520000    1.0070003 -9.2326162e-06   0.53468904 0.0053237114            0   0.52936532    1.4979129    2.0326019     1.717462 
13525000    1.0336165 -4.038754e-05   0.54376458  0.010505757            0   0.53325882    1.5375046    2.0812692    0.7027078 
13530000    1.0811707 2.5009671e-05   0.44636586  0.021260214            0   0.42510565    1.6082414    2.0546073    2.9082707 
13535000    1.0777181 -0.00011234876   0.43850572  0.010170219            0    0.4283355    1.6031057    2.0416114   -1.7932263 
13540000    1.0307028 1.5992044e-05   0.52518874  0.011371013            0   0.51381773    1.5331704    2.0583592     2.604221 
13545000    1.0143654 0.0001198267   0.55843702  0.017655297            0   0.54078173    1.5088686    2.0673056    6.1573902 
13550000    1.0694082 6.0545185e-05   0.45270766  0.049677394            0   0.40303027    1.5907448    2.0434524    4.1100614 
13555000    1.0425458 -9.5113026e-05   0.51748626  0.018729607            0   0.49875665    1.5507869    2.0682732   -1.1782514 
13560000    1.0073236 -5.2229399e-05   0.54314293  0.015602578            0   0.52754035    1.4983939    2.0415369   0.25877335 
13565000    1.0445216 -1.0252632e-05   0.51639229  0.018980142            0   0.49741215    1.5537258    2.0701181    1.7201616 
13570000       1.0537 8.9635456e-05   0.49204487 0.0037276467            0   0.48831722    1.5673788    2.0594236    5.1189805 
13575000   0.99991551 0.00019813922   0.56247468 0.0054960006            0   0.55697868    1.4873743     2.049849    8.8130012 
13580000    1.0499468 1.8809115e-05   0.49354654  0.011150655            0   0.48239589    1.5617959    2.0553424    2.6973602 
13585000    1.0143875 -0.00019726101    0.5370165  0.006386319            0   0.53063019    1.5089015     2.045918    -4.687258 
13590000     1.010701 -3.3207797e-06   0.54940937  0.015744921            0   0.53366445    1.5034177    2.0528271    1.9394778 
13595000    1.0120419 0.00014614298     0.539495  0.020866287            0   0.51862872    1.5054123    2.0449073    7.0332544 
13600000    1.0392331 1.8339496e-05    0.4980288  0.015589356            0   0.48243944    1.5458592     2.043888    2.6698761 
13605000    1.0269007 3.2900631e-05   0.52029398 0.0087229547            0   0.51157102    1.5275149    2.0478088     3.170817 
13610000    0.9895192 5.1125295e-05   0.57006601 0.0023605584            0   0.56770546    1.4719098    2.0419758    3.7870525 
13615000    1.0006755 5.1159793e-05   0.56209344 0.0075275315            0   0.55456591    1.4885048    2.0505983    3.7968525 
13620000    1.0084625 9.4671337e-05   0.57590411   0.03657531            0    0.5393288     1.500088    2.0759921    5.3074404 
13625000    1.0294933 -1.1173074e-05   0.55000723  0.046303348            0   0.50370388    1.5313712    2.0813784    1.7000042 
13630000    1.0534115 4.2185977e-05   0.49875614   0.01854357            0   0.48021257    1.5669497    2.0657058    3.5056538 
13635000    1.0222083 6.8922693e-06   0.54558182  0.018145235            0   0.52743658    1.5205348    2.0661166    2.3013727 
13640000    1.0433223 0.00014844473   0.50359164  0.019658526            0   0.48393311    1.5519419    2.0555335    7.1224471 
13645000    0.9114173 -7.1155872e-05   0.69695853  0.023699244            0   0.67325929    1.3557332    2.0526918  -0.37609533 
13650000    1.0439703 -4.8187629e-05   0.51451096  0.030211562            0    0.4842994    1.5529058    2.0674167   0.42261234 
13655000    1.0397913 -2.8566037e-05   0.51271818  0.019363105            0   0.49335508    1.5466896    2.0594078    1.0843537 
13660000    1.0477177 -6.7427357e-05   0.50073479  0.018438172            0   0.48229662    1.5584801    2.0592149   -0.2423055 
13665000    1.0237291 -6.7044867e-05   0.50939968  0.012450739            0   0.49694894    1.5227971    2.0321968  -0.25626802 
13670000    1.0107641 -2.5624841e-05    0.5181577 0.0096189827            0   0.50853872    1.5035115    2.0216692     1.147008 
13675000    1.0413441 9.5656757e-05   0.48446102   0.01091525            0   0.47354577    1.5489994    2.0334604    5.2985444 
13680000      1.08071 0.00013204351   0.45386809 0.0083975758            0   0.44547051    1.6075562    2.0614242    6.5685094 
13685000    1.0274173 -4.2462485e-05    0.5334313 0.0087716021            0    0.5246597    1.5282832    2.0617145   0.61232837 
13690000    0.9808631 -0.00012530222   0.59255406    0.0135581            0   0.57899596    1.4590339    2.0515879   -2.2253946 
13695000    1.0097263 -9.5322394e-05    0.5423444  0.010806532            0   0.53153787    1.5019678    2.0443122   -1.2093588 
13700000    1.0465651 6.1867172e-06   0.48056336 0.0079564227            0   0.47260693    1.5567656    2.0373289    2.2485022 
13705000   0.95574489 -1.9259451e-06   0.60459976  0.013743753            0     0.590856    1.4216705    2.0262703    1.9605314 
13710000    1.0029389 8.2369049e-05   0.52016007  0.029524345            0   0.49063573    1.4918716    2.0120317    4.8235619 
13715000   0.99502381 -7.4284913e-05    0.5308382  0.014488782            0   0.51634942    1.4800979    2.0109361  -0.52465558 
13720000   0.98926068 -6.3872942e-05   0.54371547 0.0045051641            0    0.5392103    1.4715253    2.0152407  -0.16495569 
13725000    1.0448803 -3.9455492e-05   0.47102233 0.0064594737            0   0.46456285    1.5542594    2.0252817   0.67853425 
13730000   0.97722445 -7.8958907e-05   0.56197908  0.014532144            0   0.54744694    1.4536214    2.0156004  -0.67953024 
13735000   0.98917429 5.4519636e-05   0.54820546  0.027049285            0   0.52115618    1.4713968    2.0196022    3.8805391 
13740000    1.0093143 0.00012593058   0.50586273  0.041304828            0    0.4645579     1.501355    2.0072177    6.3056482 
13745000   0.99908511 -2.3379186e-05   0.52928828  0.014815658            0   0.51447262    1.4861391    2.0154274    1.2174178 
13750000   0.99901623 -0.00014203551   0.57943756 0.0052214696            0   0.57421609    1.4860366    2.0654742   -2.7826711 
13755000    1.0421547 -4.8038449e-05    0.5243415  0.007643772            0   0.51669773    1.5502051    2.0745466   0.43483416 
13760000   0.98949196 3.1614579e-05   0.57316967   0.01251807            0    0.5606516    1.4718693     2.045039    3.1241499 
13765000     1.016444 3.4291868e-05   0.54411733  0.021141388            0   0.52297594    1.5119604    2.0560778    3.2265735 
13770000    1.0552663 0.00017873452   0.50436006  0.023019942            0   0.48134012    1.5697086    2.0740687    8.1748737 
13775000   0.96739283 0.00025289927   0.63379378  0.019149835            0   0.61464395    1.4389968    2.0727906    10.705086 
13780000   0.99129682 -4.9237889e-05   0.58560247  0.033874583            0   0.55172788     1.474554    2.0601565   0.37950322 
13785000    1.0007844 -0.00017584963   0.58316951  0.025277042            0   0.55789246    1.4886668    2.0718363   -3.9304977 
13790000    1.0384874 6.9222152e-06    0.5302736  0.013776352            0   0.51649725    1.5447501    2.0750237    2.3113019 
13795000   0.97004831 0.00017499192   0.64553846  0.029132331            0   0.61640613    1.4429469    2.0884853     8.061543 
13800000     1.019439 0.00016335592   0.55609408  0.036165373            0   0.51992871    1.5164155    2.0725096    7.6483915 
13805000    1.0213284 0.00014510432   0.55539802  0.028524426            0   0.52687359     1.519226     2.074624    7.0275182 
13810000   0.99150282 7.4884183e-05   0.57934153  0.008514756            0   0.57082678    1.4748604     2.054202    4.6102487 
13815000    1.0237762 -7.7675642e-05   0.53795201  0.013392995            0   0.52455902    1.5228672    2.0608192  -0.59050941 
13820000   0.94999885 8.7946827e-05   0.65281723  0.014540356            0   0.63827687    1.4131233    2.0659405    5.0678589 
13825000    1.0319422 0.00020324991   0.55053062 0.0031875429            0   0.54734308     1.535014    2.0855446    9.0231417 
13830000    1.1169464 8.1044017e-05   0.42336379 0.0033449275            0   0.42001887    1.6614578    2.0848216    4.8511241 
13835000    1.0337579 -3.9242998e-05   0.52531359  0.017442908            0   0.50787068    1.5377149    2.0630285   0.72353412 
13840000    1.0131737 -0.00010502735   0.57432918  0.052671375            0    0.5216578    1.5070959    2.0814251   -1.5035084 
13845000    1.0215168 -5.8072847e-06   0.55460763  0.044647072            0   0.50996056    1.5195062    2.0741138    1.8758919 
13850000    1.0629219 -7.9535312e-05   0.50878119  0.027555592            0    0.4812256    1.5810963    2.0898775  -0.62492784 
13855000    1.0179413 -0.00021167206   0.57587541  0.023856889            0   0.55201852    1.5141877    2.0900631     -5.13501 
13860000    1.0375079 -7.1387343e-05   0.54348736  0.021428065            0   0.52205929     1.543293    2.0867803  -0.34990761 
13865000    1.0791343 6.7254854e-07   0.47913654  0.021374311            0   0.45776223    1.6052122    2.0843488    2.1073051 
13870000    1.0406501 -0.00010720801   0.55312012  0.036673453            0   0.51644666     1.547967    2.1010871   -1.5582796 
13875000    1.0256881 0.00011127787   0.55055008  0.022095565            0   0.52845451     1.525711    2.0762611    5.8745455 
13880000    1.0306288 6.2181571e-05   0.54055398 0.0065583826            0    0.5339956    1.5330604    2.0736144    4.1960787 
13885000    1.0416287 0.00010592031   0.52963758   0.01066224            0   0.51897534    1.5494227    2.0790603    5.6944736 
13890000    1.0314764 -9.8137461e-05   0.56086031  0.011358314            0     0.549502    1.5343212    2.0951815   -1.2545772 
13895000   0.97789486 -0.00032861905   0.63830692  0.016349611            0   0.62195731    1.4546186    2.0929255   -9.1239379 
13900000    1.0294318 -0.00011070165    0.5485034  0.024929646            0   0.52357376    1.5312799    2.0797833   -1.6988329 
13905000    1.0284971 -1.1409836e-05   0.54438979  0.016199021            0   0.52819077    1.5298895    2.0742793    1.6848235 
13910000    1.0487423 3.6693129e-05    0.5193286  0.030619257            0   0.48870934    1.5600041    2.0793327    3.3317916 
13915000    1.0277137 4.0039094e-06   0.53849251  0.021212483            0   0.51728003    1.5287242    2.0672167    2.2038834 
13920000    1.0078465 -9.3281152e-05   0.55232824  0.011827097            0   0.54050114    1.4991717       2.0515   -1.1324967 
13925000    1.0599036 5.4354166e-05    0.4881273  0.011988323            0   0.47613898    1.5766066    2.0647339    3.9200228 
13930000     1.050267 7.1459795e-06   0.49520707 0.0077584077            0   0.48744866    1.5622721    2.0574792    2.3013953 
13935000    1.0192281 2.0123599e-06   0.53137809  0.010400812            0   0.52097728    1.5161018    2.0474799    2.1161685 
13940000     1.008172 7.6401804e-05   0.56257747  0.025249643            0   0.53732783    1.4996558    2.0622333    4.6700815 
13945000   0.94364506 6.4784745e-05   0.64996758  0.032866971            0   0.61710061     1.403672    2.0536396    4.2649589 
13950000    1.0529595 -5.5014891e-05   0.50563822  0.010456127            0    0.4951821    1.5662772    2.0719154   0.19407381 
13955000   0.99712154 -3.2903029e-05   0.59362445  0.022963299            0   0.57066115    1.4832183    2.0768427   0.95375269 
13960000     1.022441 0.00014081385   0.55057715  0.024526449            0    0.5260507     1.520881    2.0714581    6.8779043 
13965000    1.0511976 7.4744029e-05   0.51295356  0.040348485            0   0.47260507    1.5636564    2.0766099    4.6278728 
13970000    1.0489554 -3.0831081e-06   0.53507663  0.024745247            0   0.51033138    1.5603212    2.0953978     1.990161 
13975000    1.0623769 4.9146916e-05    0.5117999  0.020966031            0   0.49083387    1.5802856    2.0920855    3.7696335 
13980000    1.0675861 -2.4494222e-05   0.50681369  0.013188502            0   0.49362519    1.5880343     2.094848    1.2587785 
13985000    1.0523795 -0.00015769827   0.54237231 0.0040484907            0   0.53832382    1.5654145    2.1077868   -3.2749809 
13990000     1.071692 -4.3162973e-05   0.50996464 0.0075944564            0   0.50237018    1.5941418    2.1041065   0.63081033 
13995000    1.0791581 -2.3872253e-05   0.50486265  0.006186175            0   0.49867647    1.6052477    2.1101104    1.2952708 
14000000    1.1037142 -7.2660389e-05   0.47896888 0.0038144632            0   0.47515442    1.6417749    2.1207437  -0.35939752 
14005000   0.99294946 4.1321759e-05   0.63342445  0.001117212            0   0.63230724    1.4770123    2.1104368    3.5208861 
14010000    1.1022837 6.4190463e-05   0.47845713 0.0094174938            0   0.46903964     1.639647    2.1181042    4.3091386 
14015000    1.0564938 -3.2613586e-05   0.52858824  0.037434785            0   0.49115346    1.5715346    2.1001228    0.9869124 
14020000    1.0538613 4.1521146e-05   0.53961966  0.030637423            0   0.50898223    1.5676187    2.1072383    3.5244934 
14025000    1.0722469 -3.2229791e-05   0.52100773 0.0095533153            0   0.51145441    1.5949673     2.115975    1.0158648 
14030000    1.0353148 6.5555242e-05   0.55480808  0.026074959            0   0.52873312    1.5400308    2.0948389    4.3324579 
14035000    1.0517752 5.9230991e-05    0.5408799   0.03523305            0   0.50564685    1.5645156    2.1053955    4.1271467 
14040000    1.0879234 9.2399449e-05   0.49293698  0.014732974            0     0.478204    1.6182861    2.1112231    5.2651243 
14045000    1.0656016 -5.2034283e-05    0.5259372  0.011699842            0   0.51423736    1.5850824    2.1110195   0.33491604 
14050000    1.0374221 -9.6325779e-05   0.58621043 0.0050515157            0   0.58115892    1.5431654    2.1293758   -1.1585441 
14055000    1.0618364 -2.8288337e-05   0.52962661 0.0059308884            0   0.52369572    1.5794816    2.1091082     1.143533 
14060000     1.048981 0.00013752224   0.56307133 0.0079013043            0   0.55517002    1.5603593    2.1234306    6.8175231 
14065000    1.0256638 0.00014218096   0.58905647 0.0089254965            0   0.58013097    1.5256749    2.1147314    6.9678414 
14070000    1.0474148 -7.2499273e-05   0.54485273  0.026518461            0   0.51833427    1.5580295    2.1028822  -0.37175962 
14075000    1.0819517 -5.6606567e-05   0.49487584  0.022086957            0   0.47278888    1.6094032     2.104279    0.1721082 
14080000    1.0307955 5.7992637e-05   0.55737584  0.047355358            0   0.51002048    1.5333083    2.0906842    4.0701662 
14085000    1.0742618 8.207978e-06   0.49273736 0.0097580738            0   0.48297928    1.5979644    2.0907017    2.3708674 
14090000    1.0234617 -0.0001650972   0.56435926 0.0052677071            0   0.55909155    1.5223993    2.0867586   -3.5485593 
14095000    1.0240489 -7.8576613e-05   0.57939334  0.020272703            0   0.55912064    1.5232727    2.1026661  -0.57941566 
14100000     1.108762 9.8142041e-06   0.46144492  0.026081493            0   0.43536343    1.6492834    2.1107284    2.4457199 
14105000    1.0308788 6.7206828e-05   0.56819303 0.0044134525            0   0.56377957    1.5334323    2.1016253    4.3956184 
14110000    1.0476559 -4.886056e-05   0.52775369 0.0005136593            0   0.52724003    1.5583881    2.0861418   0.41836803 
14115000    1.0707477 -0.00013345846   0.49534523 0.0019993443            0   0.49334588    1.5927373    2.0880825   -2.4672995 
14120000     1.056289 -9.4993602e-05   0.54251894  0.041667276            0   0.50085167    1.5712299    2.1137489   -1.1286994 
14125000    1.0677024 1.1879104e-05   0.52059324  0.032339756            0   0.48825348    1.5882073    2.1088005    2.5142739 
14130000    1.0499388 0.0001009311   0.51973025 0.0038666403            0   0.51586361    1.5617839    2.0815142    5.5266291 
14135000    1.0781018 4.3830971e-05   0.48918467  0.012140773            0    0.4770439    1.6036765    2.0928611    3.5889583 
14140000    1.0017112 -0.00016472342    0.6139551  0.040987509            0   0.57296759    1.4900455    2.1040006   -3.5185587 
14145000    1.0420774 -0.00019635692   0.54191932   0.03402674            0   0.50789258    1.5500902    2.0920095   -4.6103067 
14150000    1.1134565 3.6804176e-06   0.43317135 0.0058221783            0   0.42734917    1.6562666     2.089438    2.2150629 
14155000    1.0371029 -2.2680002e-05   0.54383823 0.0034109949            0   0.54042724    1.5426906    2.0865288    1.3123847 
14160000    1.0489282 -0.00015049821   0.51489539  0.010137232            0   0.50475816    1.5602807    2.0751761   -3.0618296 
14165000     1.063324 -0.00010734222   0.48482323  0.014452136            0   0.47037109    1.5816944    2.0665176   -1.5974301 
14170000    1.0082903 -9.8895743e-05   0.56731396  0.054149483            0   0.51316448    1.4998318    2.0671458   -1.3084956 
14175000    1.0696498 -8.0927036e-05   0.46958072  0.020737099            0   0.44884362    1.5911041    2.0606848  -0.70162467 
14180000     1.075745 1.1121403e-05   0.44488158  0.030112913            0   0.41476867    1.6001707    2.0450523    2.4246628 
14185000    1.0853344 0.00011834665   0.42661184  0.040521334            0    0.3860905     1.614435    2.0410468    6.0806124 
14190000    1.0520753 0.00013971491   0.49913015  0.030497526            0   0.46863263     1.564962    2.0640922    6.8330277 
14195000    1.0190853 5.7453756e-05   0.52250754  0.061869417            0   0.46063812    1.5158894    2.0383969    3.9994851 
14200000    1.0135411 6.1453863e-05   0.52977845  0.059222352            0    0.4705561    1.5076424    2.0374209    4.1350461 
14205000    1.0106625 7.2101723e-05   0.55884746  0.018311377            0   0.54053608    1.5033605    2.0622079    4.5232801 
14210000    1.0101765 -6.4639416e-06   0.54272828  0.025326414            0   0.51740187    1.5026376    2.0453659      1.82473 
14215000    1.0108061 -2.6424241e-05   0.52963653  0.063963089            0   0.46567344     1.503574    2.0332106    1.1312631 
14220000    1.0473469 9.6683868e-05   0.48820553  0.032518536            0     0.455687    1.5579285    2.0461341    5.3462767 
14225000    1.0216383 0.00012336902   0.51369749  0.034917945            0   0.47877955     1.519687    2.0333845    6.2443805 
14230000    1.0893779 -4.8315862e-05   0.43688232  0.040528852            0   0.39635346    1.6204496     2.057332   0.40815052 
14235000    1.0004517 -2.3950769e-05   0.56477152  0.011397533            0   0.55337398    1.4881719    2.0529434    1.2354238 
14240000    1.0467009 9.8933084e-05   0.52102953  0.029744362            0   0.49128516    1.5569675    2.0779971     5.454913 
14245000    1.0338924 -7.9542134e-05   0.54414531  0.036805007            0   0.50734031     1.537915    2.0820603  -0.63297787 
14250000    1.0891552 -0.00020551158   0.45621764  0.017724596            0   0.43849305    1.6201183     2.076336   -4.9384594 
14255000    1.0501919 -5.9169081e-05   0.52438116  0.018794727            0   0.50558643    1.5621605    2.0865416  0.066903648 
14260000    1.0428382 -1.6165176e-05   0.54176388   0.01168383            0   0.53008005    1.5512218    2.0929857    1.5412143 
14265000    1.0467826 5.9916839e-05   0.52393544  0.030028035            0    0.4939074    1.5570891    2.0810246     4.126186 
14270000    1.0945106 4.5172766e-05   0.43015309  0.023018458            0   0.40713463    1.6280845    2.0582376    3.6001347 
14275000    1.0465475 -0.00012408965   0.50594897 0.0098698085            0   0.49607916    1.5567395    2.0626884   -2.1729048 
14280000   0.99417466 -0.0001178012   0.54696286  0.014989523            0   0.53197334    1.4788348    2.0257977   -1.9951501 
14285000    1.0099484 -8.5282657e-05   0.50344391  0.011038272            0   0.49240564    1.5022982    2.0057421  -0.90523927 
14290000    1.0380892 -4.4863174e-05   0.47417528  0.005262139            0   0.46891314    1.5441577     2.018333   0.48700335 
14295000    1.0334666 -8.7850119e-05   0.47632672  0.020569268            0   0.45575745    1.5372816    2.0136083   -0.9850091 
14300000    1.0006783 -2.677285e-05    0.5104432  0.038742788            0   0.47170042    1.4885089    1.9989521    1.0851055 
14305000   0.99878341 8.7708309e-05   0.50413084  0.014382297            0   0.48974855    1.4856903    1.9898212    4.9835981 
14310000    1.0198004 0.00012544855   0.48615749   0.02296541            0   0.46319208    1.5169531    2.0031106    6.2850878 
14315000   0.97100694 7.3095088e-05   0.55297091  0.036279395            0   0.51669151    1.4443728    1.9973437    4.4923227 
14320000   0.90223969 -5.4283599e-06   0.64336185  0.035135251            0    0.6082266    1.3420815    1.9854434    1.8001554 
14325000    1.0149115 2.8118205e-05   0.50327676  0.019913789            0   0.48336297    1.5096809    2.0129577    2.9727258 
14330000    1.0241893 0.00012363094   0.49679235   0.01425422            0   0.48253813    1.5234815    2.0202739    6.2402099 
14335000   0.98374693 -6.7388283e-05   0.56115945  0.015366732            0   0.54579272    1.4633236     2.024483   -0.2757037 
14340000   0.92630609 -0.00011138466   0.64885703    0.0625635            0   0.58629353    1.3778803    2.0267373   -1.7751925 
14345000     0.951949 -0.00010547668   0.59525635  0.046626316            0   0.54863004    1.4160241    2.0112805     -1.58899 
14350000   0.95893316 4.8176314e-05   0.56696709  0.035601872            0   0.53136522    1.4264131    1.9933802    3.6377984 
14355000       1.0275 7.7775172e-05   0.45298901  0.035201902            0   0.41778711    1.5284063    1.9813953    4.6361212 
14360000    1.0239565 0.00014139135   0.45459696  0.018905555            0   0.43569141    1.5231353    1.9777323    6.8038904 
14365000    1.0384691 3.8195704e-05   0.42858971 0.0058899461            0   0.42269976    1.5447228    1.9733125    3.2770592 
14370000   0.95366915 -0.00012124962   0.59575841 0.0040613321            0   0.59169708    1.4185829    2.0143413   -2.1243123 
14375000    0.9858345 1.1758328e-05   0.55019631  0.012203919            0   0.53799239    1.4664288    2.0166251     2.417976 
14380000   0.98925684 0.00011528961   0.55251537  0.026949171            0    0.5255662    1.4715196    2.0240349    5.9592535 
14385000    1.0370783 5.2538274e-05   0.48295186   0.01576284            0   0.46718902    1.5426539    2.0256058    3.8189122 
14390000   0.96159149 -0.000133434   0.59362348  0.016116904            0   0.57750658    1.4303673    2.0239908   -2.5305564 
14395000    1.0533314 -0.00025109774   0.45088657 0.0078865219            0   0.44300005    1.5668305     2.017717   -6.5530857 
14400000   0.98289405 -0.0001472371    0.5748744 0.0047928087            0   0.57008159    1.4620549    2.0369293   -2.9887639 
14405000    1.0420598 -5.8158174e-05   0.49617485  0.031486954            0    0.4646879     1.550064    2.0462388   0.06110648 
14410000    1.0195313 -1.7843055e-05   0.53519592  0.026441166            0   0.50875475    1.5165527    2.0517487    1.4427057 
14415000     1.021555 3.7106137e-05   0.56067306  0.010747533            0   0.54992552     1.519563    2.0802361    3.3467922 
14420000    1.0370552 0.00010601566   0.53224663   0.03247354            0   0.49977309    1.5426196    2.0748663    5.6935342 
14425000    1.0288497 -6.7729097e-07   0.56262629  0.041140919            0   0.52148537     1.530414    2.0930402     2.069922 
14430000    1.0366782 -3.3605908e-05   0.54273145  0.017573069            0   0.52515838    1.5420588    2.0847903   0.93770861 
14435000   0.93804446 7.3832928e-05   0.65901321  0.053049809            0    0.6059634    1.3953411    2.0543543    4.5745183 
14440000    0.9932607 3.8663436e-05   0.57388888  0.060245388            0   0.51364349    1.4774753    2.0513642    3.3710761 
14445000   0.98913683 -4.7871529e-05   0.58674538  0.031888227            0   0.55485716     1.471341    2.0580864   0.42407155 
14450000   0.96449594 -5.5384752e-06    0.6070129  0.011328259            0   0.59568464    1.4346877    2.0417006     1.852654 
14455000   0.97225058 -2.0617337e-05   0.59080571  0.021611696            0   0.56919402    1.4462227    2.0370285      1.33329 
14460000   0.97456466 2.2616064e-06   0.61102819  0.041564444            0   0.56946375    1.4496649    2.0606931    2.1378893 
14465000    1.0451188 4.3669889e-05   0.51043684  0.053432339            0    0.4570045    1.5546141     2.065051    3.5556499 
14470000    1.0052332 -7.5868491e-05   0.56651568  0.026824101            0   0.53969158    1.4952844    2.0618001  -0.52784445 
14475000   0.98680872 -0.00010337544   0.57799406  0.016862746            0   0.56113132     1.467878     2.045872   -1.4826764 
14480000    1.0289418 -0.00010359811   0.51100103   0.03324172            0   0.47775931    1.5305509    2.0415519   -1.4945969 
14485000    1.0095693 4.1555141e-05   0.54815649  0.028546091            0    0.5196104    1.5017344    2.0498909    3.4683063 
14490000    1.0239872 0.00010053246     0.528183  0.019730826            0   0.50845217     1.523181     2.051364    5.4828719 
14495000    1.0071175 3.3701719e-05   0.54207719  0.020974399            0   0.52110279    1.4980873    2.0401645    3.1905165 
14500000   0.99612866 7.9358802e-05   0.56697685  0.035103737            0   0.53187312    1.4817414    2.0487182    4.7574987 
14505000    1.0300465 1.1605995e-05   0.53232061  0.040766848            0   0.49155376    1.5321942    2.0645148    2.4606661 
14510000   0.96319842 -6.9810553e-05   0.62891031  0.023194086            0   0.60571623    1.4327576     2.061668  -0.32119891 
14515000   0.99720271 2.1102483e-05   0.55816194  0.032877286            0   0.52528466     1.483339     2.041501    2.7617991 
14520000   0.98147381 -8.5305729e-06   0.57070244  0.010047804            0   0.56065463    1.4599423    2.0306447    1.7394678 
14525000    1.0317321 -1.6199373e-05   0.50390366  0.018597411            0   0.48530625    1.5347015    2.0386052    1.4856666 
14530000    1.0676696 1.839513e-05   0.46718139  0.031915273            0   0.43526612    1.5881585    2.0553398    2.6832269 
14535000   0.94756217 -7.48052e-05   0.63280569  0.019659197            0   0.61314649    1.4094987    2.0423044  -0.51104643 
14540000    1.0370501 -4.2817887e-05   0.47788261  0.014770966            0   0.46311165     1.542612    2.0204946   0.55897739 
14545000   0.95155384 -1.8505703e-05   0.63613111  0.022496084            0   0.61363503    1.4154363    2.0515674    1.4199061 
14550000   0.96800492 -0.00011555611   0.59542039  0.032122716            0   0.56329767    1.4399073    2.0353277   -1.9089874 
14555000   0.97674762 -6.5737756e-05   0.57866829 0.0075911488            0   0.57107715    1.4529121    2.0315804  -0.21226835 
14560000   0.95330252 9.3458282e-05   0.60754745 0.0065516878            0   0.60099576    1.4180375     2.025585    5.2156276 
14565000    1.0324852 2.9241832e-05   0.50450972 0.0060196185            0    0.4984901    1.5358217    2.0403314    3.0384526 
14570000    1.0020742 -0.00012935919   0.54209299 0.0072807782            0   0.53481221    1.4905854    2.0326784   -2.3827818 
14575000    1.0111904 -0.00010336512   0.52061763  0.019124299            0   0.50149333    1.5041458    2.0247634   -1.5034326 
14580000   0.96579857 -5.9873747e-05   0.59656247  0.024085954            0   0.57247651    1.4366254    2.0331878 -0.010502736 
14585000   0.94441732 -5.841472e-05   0.61571343  0.038970562            0   0.57674287    1.4048208    2.0205342  0.026645099 
14590000   0.95472096 -8.5241001e-05    0.6001518  0.010566331            0   0.58958547    1.4201474    2.0202992  -0.88926026 
14595000    1.0078155 -6.6510782e-05   0.51753895 0.0068238629            0   0.51071509    1.4991255    2.0166645  -0.25357022 
14600000   0.95625424 -5.2764305e-05    0.5807613  0.025361501            0    0.5553998    1.4224282    2.0031895   0.20216786 
14605000    0.9844745 -7.2599482e-05   0.55060286   0.01740061            0   0.53320225    1.4644058    2.0150087  -0.46305364 
14610000   0.99748522 8.4374041e-05   0.52760108 0.0084822148            0   0.51911887    1.4837593    2.0113604    4.8913276 
14615000   0.99109567 3.4878435e-05    0.5185877 0.0057182344            0   0.51286946    1.4742548    1.9928425    3.1833598 
14620000   0.95900449 -2.9298024e-05   0.56327445  0.010068592            0   0.55320585    1.4265192    1.9897936    0.9897544 
14625000   0.95125174 -1.7754221e-05   0.59272154  0.010756076            0   0.58196546     1.414987    2.0077085    1.4016977 
14630000   0.98075486 -7.1752475e-06   0.55285584 0.0057244039            0   0.54713144    1.4588728    2.0117287    1.7668136 
14635000   0.94385892 -5.3576227e-05   0.60420157  0.024167966            0   0.58003361    1.4039901    2.0081917   0.17945651 
14640000   0.98766038 4.2496774e-05    0.5522983  0.034024104            0    0.5182742    1.4691448    2.0214431    3.4719997 
14645000   0.99077655 7.8606696e-05   0.54437831  0.031863626            0   0.51251469    1.4737801    2.0181584     4.701267 
14650000   0.99177058 7.5226448e-05   0.54495511  0.011342057            0   0.53361305    1.4752587    2.0202139    4.5879433 
14655000   0.98655379 -6.9426008e-07   0.56649073  0.011347847            0   0.55514289    1.4674988    2.0339895    2.0102921 
14660000   0.99062057 5.2722612e-05   0.55203023  0.037483736            0   0.51454649    1.4735481    2.0255783    3.8251768 
14665000    1.0153957 5.7420381e-05   0.52121268  0.018083959            0   0.50312872    1.5104011    2.0316137    3.9915627 
14670000    1.0028092 0.00010552784   0.54562815  0.021347837            0   0.52428031    1.4916787    2.0373068    5.6393237 
14675000     1.049369 0.00013934596   0.47111666 0.0055205103            0   0.46559615    1.5609364     2.032053    6.7883952 
14680000    1.0216777 -9.5088902e-05   0.51242642  0.013296638            0   0.49912979    1.5197455     2.032172   -1.2135292 
14685000   0.98738195 -2.3626015e-05   0.54319548 0.0086606698            0   0.53453481    1.4687306    2.0119261    1.2054915 
14690000   0.98678119 -6.1502182e-06   0.56419195 0.0049495744            0   0.55924237     1.467837     2.032029    1.8221015 
14695000   0.98717506 0.00021807089   0.56123277  0.031563111            0   0.52966966    1.4684229    2.0296557    9.4731421 
14700000    1.0214968 -8.3566658e-06     0.494561  0.052104291            0   0.44245671    1.5194764    2.0140374    1.7287966 
14705000    1.0752704 -0.00011306781   0.40853467  0.038195977            0    0.3703387    1.5994648    2.0079995   -1.8513818 
14710000   0.97368472 9.0319178e-05   0.55532466   0.03465284            0   0.52067182     1.448356    2.0036807    5.0865753 
14715000   0.95150395 0.00015492021   0.58768794  0.037375473            0   0.55031247    1.4153621    2.0030501    7.2909933 
14720000   0.95013544 0.00018858728   0.58047154  0.039792608            0   0.54067894    1.4133265     1.993798    8.4309105 
14725000   0.98350104 6.8494805e-05   0.53458978   0.02340069            0   0.51118909    1.4629578    1.9975476    4.3355036 
14730000   0.97994268 -4.4070008e-05   0.53051559  0.020768731            0   0.50974686    1.4576647    1.9881803   0.48392406 
14735000   0.91716438 -3.849855e-05   0.62774886  0.021935408            0   0.60581345     1.364282    1.9920309   0.67794704 
14740000   0.97516832 -9.9756218e-07   0.55853138  0.032945738            0   0.52558564    1.4505629    2.0090943    1.9750441 
14745000    1.0198301 -2.0573549e-05   0.52703874   0.02760981            0   0.49942893    1.5169972     2.044036    1.3417922 
14750000     1.007518 3.7192263e-05   0.57003569  0.035757003            0   0.53427869     1.498683    2.0687187    3.3382146 
14755000    1.0251213 0.00012080857   0.55970808  0.045072754            0   0.51463533    1.5248679     2.084576    6.2081752 
14760000    1.0975123 5.0988758e-06   0.46131656   0.04782937            0   0.41348719    1.6325495     2.093866    2.2679077 
14765000    1.0593086 -0.00018101615   0.51049798  0.041652742            0   0.46884524    1.5757216    2.0862196    -4.092465 
14770000    1.0129349 -0.00017488425   0.59743599   0.02336658            0   0.57406941    1.5067407    2.1041767   -3.8652057 
14775000    1.0805662 -1.6238632e-05    0.5043796 0.0058624798            0   0.49851712    1.6073422    2.1117218    1.5574432 
14780000    1.0587475  0.000118763   0.53143545  0.022569132            0   0.50886631    1.5748869    2.1063224    6.1600995 
14785000    1.0660841 8.6968384e-05   0.53091045 0.0099354271            0   0.52097502       1.5858    2.1167105    5.0852313 
14790000    1.0762785 -1.8153562e-05   0.49888818 0.0095491322            0   0.48933905    1.6009642    2.0998524    1.4802108 
14795000    1.0103346 -7.51388e-05   0.59713538  0.021720393            0   0.57541499    1.5028727    2.1000081  -0.46472966 
14800000    1.0486379 -4.7912983e-05   0.53540889  0.060487322            0   0.47492157    1.5598488    2.0952577    0.4598279 
14805000   0.97701905 -6.2977359e-05   0.64586313  0.034292991            0   0.61157014    1.4533158     2.099179 -0.050448235 
14810000    1.0577224 5.4599688e-05   0.52417642  0.014144169            0   0.51003225     1.573362    2.0975385    3.9612078 
14815000    1.0332844 2.9572311e-05   0.55207683 0.0067809776            0   0.54529585    1.5370105    2.0890874    3.0984889 
14820000    1.0784932 3.5175599e-05   0.49960464 0.0059009295            0   0.49370371    1.6042586    2.1038632    3.3045236 
14825000    1.0034513 5.6725128e-06   0.61630597  0.029841798            0   0.58646418    1.4926339    2.1089398    2.3025616 
14830000    1.0372408 -0.00010828831   0.57940098  0.033792058            0   0.54560892    1.5428957    2.1222967   -1.5739442 
14835000    1.0475934 -0.00014037772    0.5618425  0.017807663            0   0.54403484    1.5582952    2.1201377   -2.6714219 
14840000    1.0773255 -3.0480129e-05   0.52258043  0.010970598            0   0.51160983    1.6025217    2.1251021    1.0847137 
14845000    1.0252369 -7.0736519e-05    0.6048002  0.058525369            0   0.54627483    1.5250399    2.1298401  -0.28463311 
14850000   0.98948168 -5.4091524e-05   0.66654584  0.059594961            0   0.60695088     1.471854    2.1383998   0.29207581 
14855000    1.0408177 8.133822e-05   0.60270529  0.049795364            0   0.55290992    1.5482163    2.1509216    4.9272662 
14860000    1.1107616 -0.00011057019    0.5007561  0.019246738            0   0.48150937    1.6522579     2.153014   -1.6211151 
14865000    1.0706391 -6.6799352e-05   0.55417829  0.045827496            0    0.5083508    1.5925756    2.1467539  -0.13333066 
14870000   0.99977942 4.3949834e-06   0.67828587  0.045921505            0   0.63236437    1.4871719    2.1654578    2.3154732 
14875000    1.0836328 -0.00015982058    0.5224557  0.017735037            0   0.50472066    1.6119037    2.1343594   -3.3208497 
14880000    1.1124215 -5.1402092e-05   0.47677829  0.013987885            0    0.4627904     1.654727    2.1315053   0.37698056 
14885000   0.94025827 -0.00014135965   0.72115967  0.057494443            0   0.66366523    1.3986342    2.1197938   -2.7052821 
14890000    1.0819336 -9.6639111e-05   0.52559304   0.02898508            0   0.49660796    1.6093763    2.1349693   -1.1636457 
14895000    1.0235587 0.00022607646   0.59293948  0.011456787            0    0.5814827    1.5225436    2.1154831    9.8322263 
14900000    1.0658955 0.00013686226   0.53822485  0.014082071            0   0.52414278    1.5855196    2.1237444    6.7953094 
14905000    1.0320666 -4.0333094e-05   0.58504174  0.014587005            0   0.57045474     1.535199    2.1202408   0.74353785 
14910000    1.0266427 -3.4873936e-05   0.61020926  0.022686381            0   0.58752288     1.527131    2.1373402   0.94697655 
14915000     1.004855 -0.00011414366   0.62147811  0.023431282            0   0.59804683    1.4947218    2.1161999   -1.7799036 
14920000    1.0224391 -2.1117653e-05   0.58077808   0.01216865            0   0.56860943    1.5208782    2.1016563    1.3808404 
14925000    1.0470917 0.00010267557   0.55076112 0.0029214462            0   0.54783968    1.5575489      2.10831    5.6129694 
14930000    1.0801165 1.6387555e-05   0.52640913  0.026977341            0   0.49943179    1.6066732    2.1330823    2.6924442 
14935000   0.98879649 -2.1581215e-05   0.65903841  0.033291013            0   0.62574739    1.4708348    2.1298732    1.3932344 
14940000   0.93984474 9.1949821e-05   0.71190714  0.023439971            0   0.68846717    1.3980191    2.1099262    5.2484801 
14945000   0.98614321 8.6869725e-05   0.66252545  0.029200199            0   0.63332526     1.466888    2.1294135    5.0945668 
14950000    1.0179602 1.7263313e-05   0.61129592  0.025601731            0   0.58569419    1.5142158    2.1255117    2.7147661 
14955000    1.0283708 2.6569051e-05   0.61995189   0.02875898            0   0.59119291    1.5297016    2.1496535    3.0565438 
14960000    1.0808357 -0.00010447789   0.54373248  0.028177919            0   0.51555456    1.6077431    2.1514756    -1.414703 
14965000    1.0710496 -0.00021369891   0.55065804  0.014651837            0    0.5360062    1.5931863    2.1438444   -5.1504118 
14970000    1.0577738 -8.6726501e-05   0.54653628  0.013608087            0   0.53292819    1.5734386    2.1199748  -0.84028973 
14975000   0.97463883 5.2814992e-05    0.6745617  0.017321783            0   0.65723992    1.4497753     2.124337    3.9270887 
14980000   0.96227784 2.2346904e-05     0.693912  0.013153348            0   0.68075866    1.4313883    2.1253003    2.8880746 
14985000    1.0225226 2.0214242e-05   0.61641821  0.011739611            0    0.6046786    1.5210024    2.1374206    2.8274001 
14990000    1.0288649 -0.00015688095   0.59618623  0.013697571            0   0.58248866    1.5304366    2.1266228    -3.228247 
14995000     1.009301 -0.00015575831   0.62521831  0.021810746            0   0.60340756    1.5013352    2.1265536   -3.1899968 
15000000   0.95857541 -8.576823e-05   0.69792955  0.026164981            0   0.67176457    1.4258809    2.1238105  -0.80374511 
15005000    1.0638522 1.4843886e-05   0.55890244  0.021417077            0   0.53748536    1.5824801    2.1413825    2.6480539 
15010000     1.067936 6.6362476e-05   0.54285019  0.019339535            0   0.52351066    1.5885548     2.131405    4.3965775 
15015000    1.0569042 -3.3777012e-05   0.56998256 0.00059146937            0   0.56939109    1.5721451    2.1421276   0.98920561 
15020000   0.97702869 1.5045731e-06   0.68677514 0.0082718326            0    0.6785033    1.4533302    2.1401053    2.1914614 
15025000   0.98378047 0.00010925129   0.67808566  0.039145738            0   0.63893992    1.4633735    2.1414591    5.8705698 
15030000    1.0816456 -1.7093395e-05   0.54539896 0.0054760072            0   0.53992295    1.6089479    2.1543469    1.5708923 
15035000    1.0473395 -7.0777113e-05   0.59370954 0.0018584354            0    0.5918511    1.5579175     2.151627  -0.26423174 
15040000    1.0077697 -1.0301855e-05   0.65613816 0.0070154955            0   0.64912266    1.4990574    2.1551955    1.8035589 
15045000     1.036772 9.6768745e-05   0.62525761  0.020319473            0   0.60493814    1.5421983     2.167456    5.4704958 
15050000    1.0164346 4.4041206e-05   0.69244351  0.019089565            0   0.67335395    1.5119465      2.20439    3.7076632 
15055000    1.0387564 -3.4679995e-05    0.6514906  0.011699782            0   0.63979082    1.5451502    2.1966408    1.0128969 
15060000    1.0835537 2.0669306e-05   0.58468516 0.0034537309            0   0.58123143    1.6117861    2.1964713    2.9019836 
15065000    1.0509078 -6.9744595e-05   0.62003556  0.014320749            0   0.60571481    1.5632254    2.1832609  -0.19735457 
15070000    1.0767635 -1.8919243e-05   0.60825499   0.02819231            0   0.58006268    1.6016857    2.2099407    1.5641639 
15075000   0.99696715 7.0812729e-05   0.70991242   0.03402907            0   0.67588335    1.4829886     2.192901    4.6099755 
15080000    1.0227162 -0.00014163071   0.66480628  0.035431119            0   0.62937516    1.5212904    2.1860967   -2.6482315 
15085000    1.0745223 -6.4419674e-05   0.58871356  0.043446285            0   0.54526727     1.598352    2.1870655 -0.011792669 
15090000    1.0522641 2.6641195e-06    0.6489384  0.031096691            0   0.61784171    1.5652429    2.2141813    2.3051165 
15095000    1.0426655 -0.00022336456   0.65050396  0.047882113            0   0.60262185     1.550965    2.2014689   -5.4227082 
15100000    1.0428452 -1.5422427e-05   0.65040714    0.0188877            0   0.63151944    1.5512322    2.2016394    1.6752205 
15105000   0.98539702 0.00016524286   0.72036534  0.022280544            0    0.6980848    1.4657781    2.1861434     7.826433 
15110000    1.0274671 -4.4581789e-05   0.63493494  0.025488305            0   0.60944664    1.5283573    2.1632922   0.64156714 
15115000    1.0275758 -0.00010417076   0.62592734  0.033892478            0   0.59203487     1.528519    2.1544463   -1.4012489 
15120000    1.0360387 -0.00015714438   0.59444747   0.01572926            0   0.57871821    1.5411075     2.135555   -3.2283066 
15125000   0.96211659 -0.00014098897   0.70828904  0.017822419            0   0.69046662    1.4311484    2.1394375   -2.6729859 
15130000     1.082798 2.2175036e-05   0.55246783  0.021645501            0   0.53082233     1.610662    2.1631299    2.9200378 
15135000    1.0517218 -0.00012403054   0.60882592  0.030622465            0   0.57820346    1.5644362    2.1732621   -2.0603137 
15140000    1.0687569 -0.00014791663   0.60678472  0.048832693            0   0.55795202    1.5897759    2.1965607    -2.852327 
15145000    1.0920041 0.00010221093   0.58041589  0.023223939            0   0.55719195     1.624356    2.2047719    5.6935716 
15150000    1.0943177 3.259847e-05   0.58232181 0.0088479593            0   0.57347385    1.6277976    2.2101194    3.3228139 
15155000    1.0910754 3.2772624e-05    0.5774628 0.0082466601            0   0.56921614    1.6229747    2.2004375    3.3190764 
15160000    1.0350165 0.00018778471   0.65314172   0.01131743            0   0.64182429     1.539587    2.1927288    8.6024468 
15165000     1.094559 -6.3374067e-05    0.5679026 0.0097061137            0   0.55819649    1.6281565    2.1960591   0.03289096 
15170000    1.0677691 2.6240043e-06   0.60487968  0.013929793            0   0.59094989    1.5883065    2.1931862    2.2827522 
15175000    1.1187883 -5.8882185e-05   0.53026024  0.023652906            0   0.50660733    1.6641976    2.1944578   0.18461254 
15180000    1.0529764 0.00015446746   0.59582402  0.034695359            0   0.56112866    1.5663024    2.1621264    7.4346157 
15185000    1.0235755 -1.3957024e-05    0.6423815  0.024041981            0   0.61833952    1.5225685      2.16495    1.6885503 
15190000    1.0280751 -3.721105e-05   0.63622677  0.025934538            0   0.61029224    1.5292618    2.1654885   0.89535136 
15195000    1.0705999 1.6792631e-05   0.57889428  0.010954258            0   0.56794002    1.5925173    2.1714116    2.7446001 
15200000    1.1208071 -0.00010387966   0.51258922  0.010669374            0   0.50191984    1.6672006    2.1797898   -1.3659692 
15205000    1.0310981 -0.00010986011   0.65419244 0.0016513282            0   0.65254111    1.5337585    2.1879509   -1.5619407 
15210000    1.1457276 0.00015924735   0.49306389 0.00095855005            0   0.49210534    1.7042698    2.1973337    7.6329766 
15215000    1.1178576 -5.5661221e-05   0.53806466  0.033545731            0   0.50451893    1.6628132    2.2008778   0.30097482 
15220000    1.0992116 -0.00012435057   0.55710935  0.012281496            0   0.54482785    1.6350773    2.1921866   -2.0523129 
15225000    1.0868687 7.2989067e-05   0.58843696 0.0042099621            0     0.584227    1.6167173    2.2051542    4.6965144 
15230000    1.0324801 6.755125e-05   0.64447201  0.019061231            0   0.62541078    1.5358141    2.1802861    4.4860354 
15235000    1.0785681 -1.4810115e-05   0.59245893  0.022319195            0   0.57013974    1.6043701     2.196829    1.6913104 
15240000    1.0402464 -2.8068434e-05   0.67180083 0.0061619978            0   0.66563883    1.5473666    2.2191674    1.2610982 
15245000    1.0457805 3.981705e-05   0.62537224  0.013425924            0   0.61194632    1.5555984    2.1809707    3.5400593 
15250000    1.0147362 3.7729931e-05   0.67517036  0.027114667            0   0.64805569    1.5094201    2.1845905    3.4724388 
15255000    1.0946095 -7.8342482e-06   0.58058593  0.030649953            0   0.54993598    1.6282317    2.2088176    1.9414086 
15260000    1.0638007 -5.0079366e-05   0.63136588  0.037145115            0   0.59422076    1.5824036    2.2137694   0.50439373 
15265000    1.0290202 -4.9067925e-05   0.66678983   0.01478721            0   0.65200262    1.5306675    2.1974574   0.52260556 
15270000    1.0306347 3.8927122e-05   0.64358738  0.032851541            0   0.61073584    1.5330692    2.1766565     3.505369 
15275000    1.0673761 0.00013074863   0.57713313  0.034193414            0   0.54293971    1.5877219     2.164855    6.6277415 
15280000    1.0158482 -0.00022144834   0.67428519  0.023090748            0   0.65119444    1.5110741    2.1853593   -5.3734107 
15285000    1.0536572 -1.6949556e-05   0.62970854  0.012953696            0   0.61675484     1.567315    2.1970236    1.6184787 
15290000    1.1177841 8.7627982e-05    0.5601156  0.024738176            0   0.53537742    1.6627038    2.2228194    5.2138545 
15295000     1.112665 -6.0584799e-06   0.57522879  0.019812659            0   0.55541613    1.6550892     2.230318    2.0235219 
15300000    1.0908725 -4.5199345e-05   0.60768772  0.021261267            0   0.58642645    1.6226728    2.2303605   0.68755618 
15305000    1.0826445 -4.8487809e-05   0.61117319  0.034862307            0   0.57631088    1.6104337    2.2216069    0.5665564 
15310000    1.0384332 -1.7218629e-05   0.67580142  0.034199316            0   0.64160211    1.5446693    2.2204708    1.6327416 
15315000    1.0842172 -7.4373047e-05   0.59278218  0.020198769            0   0.57258342    1.6127731    2.2055553  -0.33304474 
15320000    1.1175309 -3.1109012e-06   0.55526688 0.0058166588            0   0.54945022    1.6623271     2.217594    2.1114086 
15325000    1.0342875 9.3141662e-05   0.67604743  0.017463071            0   0.65858436    1.5385027    2.2145501    5.3937855 
15330000    1.0317852 -0.00013153469   0.68894565 0.0030644766            0   0.68588117    1.5347804    2.2237261   -2.2659914 
15335000    1.1110277 -3.1262026e-05   0.56634851 0.0035628582            0   0.56278565    1.6526537    2.2190023    1.1519251 
15340000    1.0891594 6.7930983e-05   0.60589134  0.013535084            0   0.59235625    1.6201247     2.226016    4.5447269 
15345000   0.99894174 -0.00024284316   0.72955986  0.016140713            0   0.71341915    1.4859258    2.2154857   -6.0735609 
15350000    1.0461498 -7.5894897e-05   0.65331334  0.027460725            0   0.62585261    1.5561478    2.2094611  -0.38108472 
15355000    1.1074284 -7.669058e-05   0.55460902  0.028032185            0   0.52657683    1.6472998    2.2019088  -0.41579635 
15360000    1.0660548 -8.4513216e-05   0.62342003  0.045416862            0   0.57800317    1.5857565    2.2091766  -0.67554119 
15365000    1.0124015 4.9286883e-05   0.68569619  0.029417367            0   0.65627882    1.5059473    2.1916435    3.8739691 
15370000   0.97793505 -2.1125787e-05   0.71050869  0.024424775            0   0.68608392    1.4546784    2.1651871    1.4440935 
15375000   0.98266795 0.00017523331   0.67428847  0.035795081            0   0.63849339    1.4617186     2.136007     8.117304 
15380000    1.0020289 3.0088298e-05   0.64298423  0.031427662            0   0.61155657    1.4905179    2.1335022    3.1605161 
15385000   0.97884211 -9.7965609e-08   0.67700852  0.023197766            0   0.65381075    1.4560276    2.1330362    2.1296923 
15390000    1.0407092 -2.7756502e-05   0.59668464  0.013650745            0    0.5830339     1.548055    2.1447396    1.1973177 
15395000    1.0118848 3.2732665e-05   0.64612258 0.0034419699            0   0.64268061    1.5051787    2.1513013    3.2685762 
15400000    1.0803411 -0.00010421834   0.54944002 0.00081391483            0    0.5486261    1.6070074    2.1564474   -1.4008718 
15405000    1.0969444 1.3896678e-05   0.52838171 0.0099442401            0   0.51843747    1.6317048    2.1600865    2.6344265 
15410000    1.0266912 0.00037266657   0.64580827  0.032228668            0    0.6135796    1.5272031    2.1730114    14.893364 
15415000    1.0272705 0.00010510287   0.61179178  0.022000541            0   0.58979124    1.5280648    2.1398566    5.7273678 
15420000    1.0136333 2.5575423e-05   0.60574401  0.003430072            0   0.60231394    1.5077795    2.1135235    2.9864979 
15425000    1.0329768 -7.5736363e-05   0.58149829 0.0032872436            0   0.57821104     1.536553    2.1180513  -0.46708326 
15430000   0.97459033 -9.4493312e-05    0.6668776 0.0054301703            0   0.66144743    1.4497031    2.1165807    -1.108791 
15435000    1.0603727 0.00015905883   0.55413513  0.003913285            0   0.55022185    1.5773044    2.1314395    7.5606475 
15440000   0.98705596 1.6234783e-05   0.66980977    0.0103143            0   0.65949547    1.4682457    2.1380555    2.6922028 
15445000    1.0408589 6.6067174e-05   0.61301396  0.021208903            0   0.59180505    1.5482777    2.1612916    4.4163845 
15450000    1.0927022 2.1436825e-05   0.53691231  0.025019366            0   0.51189294    1.6253945    2.1623068    2.8940171 
15455000    1.0136235 3.2143801e-06   0.66093299  0.032648855            0   0.62828414    1.5077649    2.1686979    2.2784154 
15460000    1.0545954 3.6689498e-05   0.58551749  0.038709921            0   0.54680757    1.5687106    2.1542281     3.406563 
15465000    1.0198315 -3.1489093e-05   0.67006075   0.05253674            0   0.61752401    1.5169994    2.1870602    1.1122325 
15470000      1.04206 -3.139667e-05   0.63102644  0.023479797            0   0.60754664    1.5500643    2.1810907    1.1094177 
15475000    1.1201745 8.9081277e-05   0.49637094  0.021954808            0   0.47441613    1.6662596    2.1626305    5.2032714 
15480000     1.092394 0.00011907806   0.55352449  0.025424753            0   0.52809973    1.6249361    2.1784606    6.2429917 
15485000    1.0345313 4.9608208e-05   0.66148097  0.009788943            0   0.65169203    1.5388653    2.2003463    3.8936398 
15490000    1.0542855 -5.0301599e-05    0.6045293  0.010177053            0   0.59435224    1.5682497     2.172779   0.45581773 
15495000    1.0552039 5.9945717e-05   0.61024832  0.012357323            0   0.59789099    1.5696159    2.1798642    4.2260113 
15500000    1.0336222 -0.00021434118   0.66187739  0.028050901            0   0.63382649     1.537513    2.1993904   -5.1167887 
15505000    1.1380085 -5.2325652e-05   0.50959817  0.030621248            0   0.47897692    1.6927876    2.2023858   0.41633684 
15510000    1.0978907 0.00010065353   0.56304969  0.030234164            0   0.53281552    1.6331124    2.1961621    5.6318025 
15515000     1.051387 0.00024241243   0.62846192  0.031940589            0   0.59652134    1.5639382    2.1924001    10.466744 
15520000    1.0812899 -6.3297238e-05   0.56758625  0.029507519            0   0.53807873    1.6084187     2.176005  0.015459238 
15525000    1.0044349 -9.0076508e-05   0.68462567  0.018614534            0   0.66601114    1.4940969    2.1787226  -0.89588888 
15530000    1.1053546 0.00012097457   0.54243046  0.019048356            0    0.5233821    1.6442149    2.1866454    6.3159108 
15535000    1.0506739 2.1175112e-05    0.6435036  0.019181075            0   0.62432253    1.5628774     2.206381    2.9291581 
15540000    1.0764922 -7.5267923e-05   0.59497046  0.028595285            0   0.56637518    1.6012821    2.1962526   -0.3728925 
15545000    1.0813809 -4.7612965e-05   0.58106952  0.028923639            0   0.55214588    1.6085541    2.1896237   0.56443446 
15550000   0.99768511 -0.00013582537   0.73528075  0.060848798            0   0.67443195    1.4840566    2.2193374   -2.4168353 
15555000    1.1279225 8.1873125e-05   0.53788201  0.023914038            0   0.51396797    1.6777847    2.2156667    5.0102693 
15560000    1.0569175 0.00015217313   0.67315261 0.0098920503            0   0.66326056    1.5721648    2.2453174    7.4394935 
15565000    1.1011247 1.235694e-05   0.59197644  0.023236174            0   0.56874026     1.637923    2.2298994     2.651683 
15570000    0.9771069 5.617954e-05   0.77092066  0.030805889            0   0.74011477    1.4534465    2.2243672    4.1419622 
15575000    1.0161265 3.3697384e-05   0.71317487  0.019582394            0   0.69359247    1.5114882    2.2246631    3.3748671 
15580000    1.1032118 1.1446122e-05    0.5871783  0.023519067            0   0.56365923    1.6410275    2.2282058    2.6189001 
15585000    1.0727079 -0.00012008754   0.65367832  0.010942706            0   0.64273561     1.595653    2.2493313   -1.8496568 
15590000    1.0736819 -2.1977198e-05   0.64055917 0.0018008455            0   0.63875832    1.5971019    2.2376611     1.487506 
15595000     1.111728 -0.00018020441   0.59662183  0.012492632            0    0.5841292    1.6536954    2.2503173   -3.9006598 
15600000    1.0636964 -3.1939491e-05    0.6711441  0.039540186            0   0.63160391    1.5822484    2.2533925    1.1631912 
15605000    1.1373718 0.00013444862   0.56047024  0.027947866            0   0.53252237    1.6918405    2.2523108    6.8414902 
15610000    1.1429409 -9.8551728e-05   0.55513802  0.017383422            0    0.5377546    1.7001246    2.2552626   -1.1086364 
15615000    1.1143167 -1.9445129e-05   0.58088165  0.011369645            0     0.569512     1.657546    2.2384277    1.5747006 
15620000    1.0894494 7.053882e-05   0.57370883  0.015868013            0   0.55784082     1.620556    2.1942648    4.6019899 
15625000    1.0272832 4.9959076e-05   0.65746357   0.01016341            0   0.64730016    1.5280838    2.1855474    3.8908172 
15630000    1.0190001 -4.0202892e-05   0.70014267   0.01454043            0   0.68560224    1.5157627    2.2159054   0.84364668 
15635000    1.0638191 0.00013946898   0.62823315   0.02707343            0   0.60115972    1.5824309    2.2106641    6.9712052 
15640000     1.032277 2.6234335e-06   0.67037167  0.007022186            0   0.66334948    1.5355121    2.2058838    2.2954303 
15645000    1.1181927 5.3530562e-06   0.55734294 0.0026991709            0   0.55464377    1.6633117    2.2206546    2.4033723 
15650000    1.0680428 4.2980699e-05   0.63369626 0.0073873727            0   0.62630889    1.5887136    2.2224099    3.6894844 
15655000    1.0688367 0.00015437194   0.62524904  0.014265496            0   0.61098355    1.5898946    2.2151436    7.4843726 
15660000    1.1163421 0.00012132898   0.55560072   0.02291839            0   0.53268233    1.6605588    2.2161595    6.3575221 
15665000    1.0732618 -3.2747103e-05   0.62209038  0.033524119            0   0.58856626    1.5964769    2.2185672    1.1007995 
15670000    1.1576305 -4.5491936e-05   0.50586219 0.0070712028            0   0.49879099    1.7219754    2.2278376   0.67504618 
15675000    1.1093114 -7.0381044e-05   0.54484483  0.012993935            0    0.5318509    1.6501007    2.1949455  -0.20739416 
15680000    1.1005666 -4.8481797e-05   0.56970545  0.017682512            0   0.55202294    1.6370929    2.2067983   0.55195299 
15685000    1.0561839 -2.2656107e-05   0.63622164     0.021584            0   0.61463764    1.5710735    2.2072952    1.4339667 
15690000    1.1100258 -1.7861943e-05   0.55594757  0.013647341            0   0.54230023    1.6511634     2.207111    1.5974233 
15695000    1.0321565 -6.5115535e-05   0.66564144   0.02647428            0   0.63916716    1.5353328    2.2009742 -0.021636058 
15700000    1.0764472 -0.00010752937   0.60292176  0.023363581            0   0.57955818    1.6012152     2.204137   -1.4661988 
15705000    1.0545803 -7.394484e-05   0.62550787  0.013230331            0   0.61227754    1.5686882     2.194196  -0.32978784 
15710000    1.0730807 -2.4656389e-05   0.59888787  0.026081302            0   0.57280656    1.5962075    2.1950954    1.3534907 
15715000    1.0645647 8.4029451e-05    0.6365084  0.028382594            0    0.6081258      1.58354    2.2200484    5.0882537 
15720000    1.0896133 2.5854254e-05   0.61107373   0.01623811            0   0.59483562    1.6207998    2.2318735    3.1143654 
15725000    1.0915091 -4.2476609e-05   0.61777171  0.021799761            0   0.59597195    1.6236198    2.2413915   0.79152323 
15730000    1.0989323 5.0625666e-05    0.6073041  0.029963878            0   0.57734022    1.6346619     2.241966    3.9699887 
15735000    1.0747632 -8.9832799e-05   0.63855081  0.019074698            0   0.61947612    1.5987103    2.2372611  -0.82903173 
15740000    1.1064521 -0.00010319198   0.57781689  0.011734298            0   0.56608259    1.6458476    2.2236645   -1.2986219 
15745000     1.089717 0.00019411897   0.61648956  0.019379933            0   0.59710963    1.6209541    2.2374436    8.8633711 
15750000    1.1535972 3.8617407e-05   0.53903825  0.034691041            0   0.50434721    1.7159758    2.2550141    3.5731549 
15755000    1.0680694 -0.00015944216   0.66509737  0.057107642            0   0.60798972    1.5887532    2.2538505    -3.188442 
15760000    1.1347533 -2.186035e-05   0.56152073     0.032472            0   0.52904873    1.6879456    2.2494663    1.5032997 
15765000    1.1316885  0.000129733   0.54418393  0.013834216            0   0.53034971    1.6833866    2.2275705    6.6557903 
15770000    1.0450991 0.00017010209   0.63661224   0.03212551            0   0.60448673     1.554585    2.1911972    7.9973485 
15775000    1.0550228 0.00018476862   0.61311881  0.033528096            0   0.57959071    1.5693464    2.1824652    8.4892341 
15780000    1.1465372 3.6455348e-06   0.47787477  0.016361561            0   0.46151321    1.7054741    2.1833489    2.3077832 
15785000    1.0378493 -0.00012004011   0.61888785  0.025442165            0   0.59344568    1.5438008    2.1626887   -1.9346806 
15790000    1.0416593 -5.5195132e-05   0.60602082  0.038925134            0   0.56709569    1.5494682     2.155489   0.27149515 
15795000    1.0310264 7.1009866e-05   0.61832995   0.02268911            0   0.59564084    1.5336518    2.1519818    4.5757852 
15800000    1.0504542 0.00012339894   0.59172312   0.02497026            0   0.56675286    1.5625506    2.1542737    6.3662908 
15805000     1.036995 -0.00019442963   0.57062863  0.025887209            0   0.54474142      1.54253    2.1131587   -4.5233728 
15810000    1.0546274 0.00011013852   0.53939253   0.04874725            0   0.49064528    1.5687583    2.1081509    5.8675456 
15815000   0.98052502 0.00010089118   0.65248024  0.036834791            0   0.61564544     1.458531    2.1110112    5.5547636 
15820000    1.0550582 4.9232332e-05   0.55937676  0.037791095            0   0.52158567     1.569399    2.1287758    3.8092394 
15825000    1.0322164 6.1714684e-05   0.58847457   0.09540367            0    0.4930709    1.5354219    2.1238965    4.2304244 
15830000    1.0560412 -4.0466018e-05   0.55822784  0.071649782            0   0.48657806    1.5708613    2.1290892    0.7478491 
15835000    1.0866496 -0.00014638841   0.53286575  0.044247882            0   0.48861787    1.6163913    2.1492571   -2.8474673 
15840000    1.0488543 -9.6847047e-05   0.57988004  0.018441991            0   0.56143805    1.5601708    2.1400508   -1.1656617 
15845000   0.99905048 0.00011947306   0.62468876  0.022657988            0   0.60203077    1.4860876    2.1107763      6.18879 
15850000     1.026998 -0.00011363986   0.55609111  0.031974048            0   0.52411706    1.5276595    2.0837506   -1.7951566 
15855000    1.0312566 -0.00017491213   0.54340553  0.022475278            0   0.52093025    1.5339942    2.0773997   -3.8929342 
15860000     1.094002 5.7664728e-05   0.45916056  0.017269466            0   0.44189109     1.627328    2.0864886     4.054778 
15865000    1.0634747 1.6481734e-05   0.50130782  0.018012252            0   0.48329557    1.5819186    2.0832264    2.6458029 
15870000    1.0769356 5.4277463e-05   0.49040944  0.018982297            0   0.47142715    1.6019416    2.0923511    3.9450218 
15875000    1.1098598 0.00011251209   0.45500804  0.017046384            0   0.43796165    1.6509164    2.1059245    5.9463373 
15880000    1.0442025 -2.0854937e-05   0.54323853  0.021042468            0   0.52219606    1.5532512    2.0964898    1.3846413 
15885000    1.0184948 -4.5864121e-05   0.56866819  0.036657665            0   0.53201052     1.515011    2.0836792   0.51818383 
15890000    1.0250447 -0.00016020864   0.55255906  0.017029304            0   0.53552975     1.524754     2.077313    -3.391142 
15895000     1.042476 2.7460098e-05   0.56539548  0.019200764            0   0.54619472     1.550683    2.1160785    3.0533832 
15900000    1.0799434 0.00010487611   0.50971472  0.016394491            0   0.49332023    1.6064158    2.1161306    5.6959019 
15905000   0.98022969 -9.9190544e-07   0.62522592  0.014556991            0   0.61066893    1.4580917    2.0833176    2.0494605 
15910000    0.9906476 -8.0836635e-05   0.60934714  0.019451956            0   0.58989519    1.4735883    2.0829354  -0.67628838 
15915000    1.0864964 -0.0001896873   0.47223227  0.021520841            0   0.45071143    1.6161634    2.0883956   -4.3862643 
15920000    1.0608432 -0.00010610157   0.51706779 0.0089529611            0   0.50811483    1.5780042     2.095072   -1.5265282 
15925000    1.0919962 -2.91596e-05   0.49432386  0.027699967            0   0.46662389    1.6243443    2.1186681    1.1233538 
15930000    1.0531189 7.3535441e-05   0.57220713  0.015419696            0   0.55678743    1.5665144    2.1387215    4.6487312 
15935000    1.0547211 2.7451044e-05   0.58845372  0.044562144            0   0.54389158    1.5688977    2.1573514     3.094347 
15940000    1.0613334 0.00016106509   0.56398569  0.049909314            0   0.51407638    1.5787335    2.1427192    7.6404077 
15945000    1.0877419 0.00015194921   0.50319925     0.039548            0   0.46365125    1.6180161    2.1212154    7.3077484 
15950000    1.0900245 -4.3971955e-06   0.53760137  0.019256922            0   0.51834445    1.6214115    2.1590128    2.0089219 
15955000    1.1179007 4.9577589e-05   0.52768932 0.0069135149            0    0.5207758    1.6628773    2.1905666     3.882815 
15960000    1.1136641 9.5588949e-05   0.53134465 0.0065952437            0   0.52474941    1.6565753    2.1879199    5.4506894 
15965000    1.1023532 -7.2924949e-05   0.54636187 0.0017955248            0   0.54456634    1.6397504    2.1861123  -0.30305933 
15970000    1.1011811 -0.00024773894    0.5329115 0.00095553523            0   0.53195596    1.6380069    2.1709184   -6.2852376 
15975000    1.1550996 -4.7165881e-05   0.47514761 0.0058603331            0   0.46928728    1.7182107    2.1933583   0.58342956 
15980000    1.1134982 6.8768098e-05   0.56456978  0.028791573            0    0.5357782    1.6563286    2.2208984    4.5681828 
15985000    1.1021281 7.3739017e-05   0.55576481  0.017828307            0    0.5379365    1.6394156    2.1951804    4.7121388 
15990000    1.1096222 -0.00019191699   0.56508877  0.013920594            0   0.55116817    1.6505631    2.2156519   -4.3351148 
15995000    1.1558805 -0.00022238476    0.4966847 0.0078858943            0   0.48879881    1.7193723     2.216057   -5.3746761 
16000000    1.1225685 5.6620641e-05   0.55344737  0.022378227            0   0.53106915    1.6698206     2.223268    4.1559192 
16005000    1.1320546 4.7326024e-05   0.53907319   0.03345522            0   0.50561797    1.6839313    2.2230044    3.8383994 
16010000    1.1160839 3.2661534e-05   0.54732571   0.01546399            0   0.53186172    1.6601748    2.2075005    3.3223476 
16015000    1.1487213 -2.8054889e-05   0.49265252 0.0096525195            0        0.483    1.7087229    2.2013755    1.2437686 
16020000    1.1206145 -0.00013253943   0.53265119  0.009173762            0   0.52347742    1.6669141    2.1995653   -2.3244474 
16025000     1.092751 -0.00013511214   0.55546106   0.03117197            0   0.52428909    1.6254671    2.1809282   -2.4308995 
16030000    1.0982814 -0.00017375444   0.53445947  0.021030985            0   0.51342849    1.6336935     2.168153   -3.7626651 
16035000    1.1237818 5.3179473e-05   0.51247954  0.029839755            0   0.48263979    1.6716255     2.184105    3.9992977 
16040000    1.0331214 0.00014197934   0.64765603  0.060317259            0   0.58733877    1.5367681    2.1844241    7.0306521 
16045000    1.1099661 0.00015528911   0.51047866  0.018204054            0    0.4922746    1.6510745    2.1615532     7.462088 
16050000    1.0812159 2.3307318e-05   0.55837834  0.020066164            0   0.53831218    1.6083087     2.166687    2.9622434 
16055000    1.1424231 -6.4309939e-05    0.4693581  0.032503333            0   0.43685476    1.6993544    2.1687125 -0.026400074 
16060000     1.074941 -2.6195603e-05   0.55771328  0.023894553            0   0.53381872    1.5989747     2.156688    1.2625447 
16065000    1.1422371 -1.9196515e-05   0.46524099 0.0060427473            0   0.45919824    1.6990776    2.1643186    1.5090776 
16070000    1.0353986 -1.17781e-05   0.61144001  0.035189818            0    0.5762502    1.5401554    2.1515954    1.7495695 
16075000    1.0170592 -1.5249669e-05   0.62231457  0.013760927            0   0.60855365    1.5128756    2.1351902    1.6146682 
16080000    1.0294717 -4.5492528e-05   0.57266171  0.025581906            0    0.5470798    1.5313392    2.1040009   0.55118924 
16085000    1.0361935  4.71511e-05   0.56656836  0.039136912            0   0.52743145    1.5413378    2.1079062    3.7173304 
16090000    1.0865884 2.7731884e-06    0.4736174  0.040964193            0   0.43265321    1.6163002    2.0899176    2.1845757 
16095000    1.0563905 -0.00019277239   0.53091175  0.019132488            0   0.51177926    1.5713808    2.1022925   -4.4776716 
16100000    1.0764551 6.816399e-05   0.49207641   0.01034645            0   0.48172996     1.601227    2.0933034    4.4199676 
16105000    1.0899377  9.80253e-05   0.49086835  0.011447706            0   0.47942065    1.6212823    2.1121507    5.4580809 
16110000    1.1006637 -9.8442727e-06   0.49778628  0.017254745            0   0.48053154    1.6372373    2.1350235    1.7990057 
16115000    1.1448056 -2.1544068e-05   0.44848849  0.010622366            0   0.43786612    1.7028983    2.1513868     1.416016 
16120000    1.1289726 -7.5604317e-05   0.46080348  0.017673112            0   0.44313036    1.6793468    2.1401503  -0.44047709 
16125000    1.0618207 4.6154573e-05   0.61008372  0.019138028            0   0.59094569    1.5794583     2.189542    3.7649515 
16130000    1.1728051 0.00011473511   0.44898146 0.0076648498            0   0.44131661    1.7445475     2.193529    6.1098208 
16135000    1.0589206 6.8776896e-05    0.6396493  0.012216622            0   0.62743268    1.5751445    2.2147938    4.5623785 
16140000    1.0743488 -0.000137864    0.6001163  0.025384707            0   0.57473159    1.5980938    2.1982101   -2.5075477 
16145000    1.1348506 -9.9333018e-05   0.51652741  0.039198367            0   0.47732905    1.6880903    2.2046177   -1.1859493 
16150000    1.1128236 0.00014216504   0.55449339  0.085365235            0   0.46912815    1.6553251    2.2098184    7.0623852 
16155000    1.0939762 7.512025e-05   0.57462476  0.045751831            0   0.52887293    1.6272897    2.2019144     4.766019 
16160000    1.0803239 -9.7096465e-05   0.58176718  0.035157042            0   0.54661014    1.6069818     2.188749   -1.1254771 
16165000    1.1030313 -5.5800968e-05   0.53971082  0.060680383            0   0.47903044    1.6407591    2.1804699   0.27579684 
16170000    1.0962005 9.4065652e-05    0.5329697  0.042323002            0    0.4906467    1.6305983     2.163568    5.3743423 
16175000    1.0539185 0.00012342871   0.61826369  0.043632087            0    0.5746316    1.5677037    2.1859674    6.3990008 
16180000    1.0724982 8.9798505e-05   0.61159549  0.054649659            0   0.55694583    1.5953411    2.2069366    5.2720589 
16185000    1.0868834 3.527929e-05   0.62569324  0.038390976            0   0.58730226    1.6167391    2.2424323    3.4466321 
16190000    1.1074256 8.0962486e-05   0.61560898  0.032359274            0   0.58324971    1.6472956    2.2629045    5.0264241 
16195000    1.0831475 5.2724381e-05   0.68041916  0.023726437            0   0.65669272    1.6111818     2.291601    4.0912598 
16200000    1.1208093 -1.9383612e-05   0.63058038  0.035617978            0   0.59496241    1.6672038    2.2977842    1.6361569 
16205000    1.1406052 -2.9845513e-05   0.61027457  0.019668931            0   0.59060564    1.6966502    2.3069248    1.2881979 
16210000    1.1373056 7.2524141e-05    0.6102358  0.006250964            0   0.60398483     1.691742    2.3019778    4.7774685 
16215000     1.164754 7.6063575e-05   0.53858134  0.048696598            0   0.48988475    1.7325716    2.2711529    4.8674563 
16220000    1.1172618 -3.017675e-05   0.60948801  0.025432276            0   0.58405573    1.6619269    2.2714149    1.2413819 
16225000    1.0936557 6.3104942e-05   0.62938464  0.054266967            0   0.57511768    1.6268129    2.2561976    4.4101796 
16230000    1.1169326 -2.3733991e-05   0.58971211  0.065447262            0   0.52426485    1.6614372    2.2511493    1.4410291 
16235000    1.0044352 -0.00013338032   0.72996111  0.026430861            0   0.70353025    1.4940974    2.2240585   -2.3286565 
16240000    1.0802369 -2.6621006e-05   0.60814431 0.0045946894            0   0.60354962    1.6068524    2.2149967     1.306333 
16245000     1.099579 0.00011516891   0.54137794 0.0065969444            0   0.53478099    1.6356238    2.1770017    6.1081005 
16250000    1.1502581 8.7973853e-05   0.44614131  0.013489898            0   0.43265141    1.7110089    2.1571502     5.159991 
16255000    1.1174385 4.5861823e-06   0.48802337  0.013275025            0   0.47474835    1.6621898    2.1502132    2.3067549 
16260000    1.0731102 7.5951653e-05   0.53399604  0.021830891            0   0.51216515    1.5962514    2.1302475    4.7227305 
16265000    1.0475809 0.00014738727   0.57047946  0.031058235            0   0.53942123    1.5582766    2.1287561     7.159575 
16270000    1.0813176 9.0159862e-05   0.52122583  0.016192113            0   0.50503372    1.6084599    2.1296857    5.2071423 
16275000    1.1612783 3.8650227e-05   0.39652592  0.017845688            0   0.37868024    1.7274014    2.1239273    3.4431884 
16280000     1.012874 4.772747e-05   0.62168183   0.02907411            0   0.59260772    1.5066501    2.1283319    3.7574296 
16285000     1.083432 9.7946191e-06   0.51897837  0.029801856            0   0.48917651     1.611605    2.1305834    2.4649064 
16290000    1.0948723 -4.8639465e-05   0.51068079   0.02173564            0   0.48894515    1.6286225    2.1393033   0.47907626 
16295000     1.133032 1.6285305e-06   0.46194766  0.023861551            0   0.43808611     1.685385    2.1473327    2.2029199 
16300000    1.0598663 0.00018367436   0.59378093  0.053252865            0   0.54052806    1.5765512    2.1703321    8.4397502 
16305000    1.1129608 6.6889628e-05   0.51704546  0.010882219            0   0.50616324    1.6555292    2.1725747    4.4557407 
16310000    1.1169589 -2.5465159e-05   0.49231911  0.017456732            0   0.47486238    1.6614763    2.1537954    1.2845847 
16315000    1.1076429 3.5056953e-05   0.48478714  0.040324056            0   0.44446308    1.6476188    2.1324059    3.3290166 
16320000    1.0748983 -5.8080808e-05    0.5011966  0.043923596            0     0.457273    1.5989113    2.1001079   0.11761629 
16325000    1.0845703 -8.287796e-05   0.52097535   0.03146335            0     0.489512    1.6132983    2.1342736  -0.69462738 
16330000    1.0953896 -2.4716843e-05   0.51110893 0.0052226802            0   0.50588625     1.629392    2.1405009    1.2968327 
16335000    1.1337132 -6.2915151e-05   0.47310759 0.0099286515            0   0.46317894    1.6863984     2.159506  0.012002208 
16340000    1.1154771 -0.00013003664   0.50341209 0.0088037562            0   0.49460834    1.6592721    2.1626842   -2.2758998 
16345000    1.1184001 8.3965986e-05   0.48842099  0.034262862            0   0.45415812    1.6636201    2.1520411    5.0180801 
16350000   0.99703792 0.00013891409   0.64647672  0.085587514            0   0.56088921    1.4830939    2.1295706    6.8711717 
16355000    1.0904036 -9.4915123e-05   0.50423151  0.047150984            0   0.45708053    1.6219754    2.1262069   -1.1135626 
16360000    1.1198545 2.5796946e-06   0.48747636  0.028287026            0   0.45918933    1.6657836      2.15326    2.2413135 
16365000    1.1584264 -3.6417832e-05   0.42194877  0.035654068            0   0.38629471    1.7231593    2.1451081    0.9020461 
16370000    1.0927736 -7.1133242e-05   0.52614611   0.02860836            0   0.49753775    1.6255007    2.1516468  -0.27636782 
16375000    1.0690142 6.5327924e-05   0.55644311  0.011929147            0   0.54451397    1.5901586    2.1466017    4.3764615 
16380000    1.1351581 -7.7752895e-05   0.48408138 0.0072345606            0   0.47684682    1.6885477    2.1726291  -0.48133638 
16385000    1.1621632 -3.4379265e-05   0.44429661  0.013550068            0   0.43074654    1.7287178    2.1730144    0.9995355 
16390000    1.0927529 -5.4895092e-05   0.55239972  0.019735127            0   0.53266459    1.6254699    2.1778697   0.30411721 
16395000     1.084701 4.8291286e-06   0.52903535  0.035650575            0   0.49338477    1.6134927    2.1425281    2.3073623 
16400000    1.0706813 -6.7585701e-05   0.53142246  0.025806012            0   0.50561644    1.5926385    2.1240609   -0.1828643 
16405000    1.1176487 -4.153573e-05   0.46100826  0.035463889            0   0.42554438    1.6625024    2.1235107   0.70575778 
16410000    1.0697951 3.2517871e-05   0.52805058  0.014642315            0   0.51340826    1.5913201    2.1193707     3.229314 
16415000    1.0786704 3.6920332e-05    0.5017049  0.011220331            0   0.49048457    1.6045222    2.1062271     3.366441 
16420000    1.0576393 0.00015104293   0.54323361  0.028346368            0   0.51488725    1.5732385    2.1164721    7.2720707 
16425000    1.0876363 0.00024580867   0.50363575  0.044203568            0   0.45943218    1.6178591    2.1214948    10.511764 
16430000    1.1155155 0.00011378681   0.47898404  0.039577909            0   0.43940613    1.6593293    2.1383134    6.0222366 
16435000    1.0832545 -5.5650592e-05    0.5060891  0.040794491            0    0.4652946    1.6113411    2.1174302   0.21789002 
16440000    1.0764477 1.6135428e-05   0.52896395  0.061735925            0   0.46722802    1.6012159    2.1301799    2.6809358 
16445000    1.0993817 9.3325096e-05   0.52105582  0.027550446            0   0.49350537    1.6353303    2.1563861    5.3418828 
16450000     1.128303 -8.0267345e-06   0.48540985  0.014974621            0   0.47043523    1.6783507    2.1637605    1.8897813 
16455000    1.1046904 -0.00013413334   0.52920955  0.035535805            0   0.49367374     1.643227    2.1724366   -2.4059813 
16460000    1.0898788 -0.00013527066   0.53260046  0.022683747            0   0.50991672    1.6211947    2.1537951   -2.4634436 
16465000     1.110731 -6.0316199e-05   0.49969379  0.037805984            0    0.4618878    1.6522124    2.1519061  0.093113207 
16470000    1.1120115 7.0328379e-05   0.49913497  0.047712197            0   0.45142278    1.6541172    2.1532521    4.5537942 
16475000    1.0776791 0.00014297427   0.53990152   0.06126991            0   0.47863161    1.6030477    2.1429492    7.0231375 
16480000    1.0520937 0.00012416393    0.5442305  0.038753653            0   0.50547684    1.5649895      2.10922    6.3473488 
16485000    1.0951292 1.2779177e-05   0.49201556 0.0053560034            0   0.48665956    1.6290047    2.1210203    2.5572162 
16490000    1.0860263 -0.00025457643   0.49888965 0.0015087397            0   0.49738091    1.6154641    2.1143537   -6.5751885 
16495000    1.0674597 -0.00020078264   0.52160078  0.015498499            0   0.50610228    1.5878464    2.1094472   -4.7439337 
16500000    1.0760716 -2.8718682e-05   0.48948346  0.032475016            0   0.45700845    1.6006565      2.09014    1.1098756 
16505000    1.0762057 -1.5084129e-05   0.49258271  0.062957858            0   0.42962486    1.6008559    2.0934386    1.5785671 
16510000    1.0598974 -2.9223251e-05    0.5119924  0.013345221            0   0.49864718    1.5765974    2.0885898    1.0911029 
16515000    1.0696212 6.363413e-05   0.51457512 0.0099561974            0   0.50461892    1.5910615    2.1056366    4.2776816 
16520000    1.0817767 4.1798781e-05   0.50256171  0.014507736            0   0.48805397    1.6091428    2.1117045    3.5384362 
16525000    1.0561744 -5.2086404e-05   0.52688085  0.044099658            0   0.48278119    1.5710594    2.0979402   0.32005763 
16530000     1.014519 2.6226089e-05   0.57861369   0.03969021            0   0.53892348    1.5090971    2.0877108    2.9828946 
16535000    1.1020717 8.2591479e-05    0.4596973  0.036426837            0   0.42327047    1.6393317     2.099029    4.9181515 
16540000    1.0829416 -0.00012440718   0.49071678  0.025047681            0    0.4656691    1.6108756    2.1015924   -2.1448395 
16545000    1.1367388 -3.6624046e-05   0.43745531    0.0130058            0   0.42444951     1.690899    2.1283543   0.87825349 
16550000    1.1642813 0.00019559658   0.39067519 0.0079795409            0   0.38269565    1.7318684    2.1225436    8.7989068 
16555000    1.0943875 5.3553923e-05    0.5108806  0.012182271            0   0.49869833    1.6279014     2.138782    3.9667559 
16560000    1.0694149 -8.2432771e-05   0.57088189  0.045003109            0   0.52587878    1.5907547    2.1616366  -0.65206868 
16565000    1.1427016 -9.491554e-05   0.48874045  0.022063376            0   0.46667708    1.6997686    2.1885091   -1.0512747 
16570000     1.160038 -4.2395592e-05   0.43785455  0.007120188            0   0.43073436    1.7255566    2.1634111   0.71630825 
16575000    1.0897307 0.00011040006   0.51061587  0.004802014            0   0.50581386    1.6209745    2.1315904    5.8999124 
16580000    1.1174642 -3.0437928e-05   0.46931065  0.010763743            0   0.45854691     1.662228    2.1315386    1.0925907 
16585000    1.1181179 -4.2905016e-05   0.45101745  0.013242723            0   0.43777473    1.6632004    2.1142179   0.64972669 
16590000    1.0769076 1.7274883e-07   0.51625752   0.02199355            0   0.49426397       1.6019    2.1181575     2.124054 
16595000    1.1058134 -5.0491084e-05   0.46425513  0.010428632            0    0.4538265    1.6448974    2.1091525   0.38572351 
16600000    1.0849833 2.9005723e-05   0.48243944 0.0054229594            0   0.47701648    1.6139126    2.0963521    3.0864141 
16605000    1.1174143 -3.8665661e-06   0.43817226  0.010873919            0   0.42729834    1.6621537     2.100326    1.9683472 
16610000    1.0716893 -0.00011395424    0.4908259  0.013396799            0    0.4774291    1.5941378    2.0849637   -1.8046745 
16615000    1.0810918 2.6611787e-05   0.48683917  0.026584713            0   0.46025446    1.6081241    2.0949633    3.0033123 
16620000    1.0638408 2.8419601e-05   0.50699136  0.033539406            0   0.47345195    1.5824631    2.0894545    3.0595102 
16625000    1.1099962 7.1712065e-05   0.44914699  0.014207952            0   0.43493904    1.6511193    2.1002663    4.5480381 
16630000    1.0590875 0.00010743495   0.50970742   0.02806604            0   0.48164138    1.5753926       2.0851    5.7522132 
16635000     1.090144 -0.00014429235   0.48386835   0.03128338            0   0.45258497    1.6215893    2.1054576   -2.8197212 
16640000    1.0691274 -0.00015146346    0.5031785  0.031717529            0   0.47146097     1.590327    2.0935055   -3.0764473 
16645000    1.0802819 -4.9245691e-05   0.47117292   0.03520095            0   0.43597197    1.6069193    2.0780923   0.39717267 
16650000    1.1135685 -6.5610838e-05   0.42482972  0.043462286            0   0.38136744    1.6564331    2.0812628  -0.15825378 
16655000    1.0517599 -1.9937174e-05   0.50793556  0.049965982            0   0.45796958    1.5644929    2.0724284    1.3919062 
16660000    1.0391325 -3.2881807e-05   0.51069108   0.02469525            0   0.48599583    1.5457095    2.0564006   0.93403493 
16665000     1.158213 -9.0856483e-05   0.33207606  0.014360713            0   0.31771535    1.7228418    2.0549179   -1.0463167 
16670000    1.0829691 -0.00012083678   0.43537836  0.017053704            0   0.41832466    1.6109165    2.0462948   -2.0782674 
16675000    1.0045952 -7.4669454e-05   0.55841612  0.055805953            0   0.50261016    1.4943353    2.0527514  -0.49596592 
16680000    1.0679195 -4.0972356e-06   0.46702321  0.030641652            0   0.43638156    1.5885302    2.0555535    1.9157011 
16685000    1.0184925 -6.7541266e-05   0.51825414  0.047598117            0   0.47065602    1.5150076    2.0332617   -0.2721468 
16690000    1.0666864 -9.574778e-05   0.44475642  0.013525126            0   0.43123129     1.586696    2.0314524   -1.2367385 
16695000    1.0902295 4.2700139e-05   0.39761277  0.011329585            0   0.38628319    1.6217164    2.0193292    3.4768273 
16700000    1.0085852 7.129045e-05   0.52449934 0.0089598619            0   0.51553948    1.5002705    2.0247698    4.4581505 
16705000    1.0580273 -3.4776486e-05   0.43250011  0.026362529            0   0.40613759    1.5738156    2.0063157    0.8192783 
16710000    1.0314556 -7.732438e-05   0.48460929  0.034525035            0   0.45008425    1.5342902    2.0188995  -0.62043933 
16715000    1.0847205 -2.5217252e-05   0.40095086 0.0055504025            0   0.39540046    1.6135218    2.0144727    1.1537238 
16720000     1.052992 2.4058635e-05   0.47800723  0.035492815            0   0.44251442    1.5663256    2.0443329    2.8655343 
16725000    1.0797266 -2.2511918e-05   0.43781999 0.0098368639            0   0.42798313    1.6060933    2.0439133    1.2755065 
16730000      1.06519 -0.00013862035   0.44805009  0.025497652            0   0.42255244    1.5844701    2.0325202   -2.6990545 
16735000    1.0668404 7.7016206e-05   0.44332726  0.026792283            0   0.41653498    1.5869251    2.0302524    4.6590722 
16740000    1.0342699 6.1034289e-05   0.49016438  0.032692524            0   0.45747185    1.5384765    2.0286408    4.1119446 
16745000    1.1332351 0.00023896524   0.37281382  0.033945109            0   0.33886871    1.6856872     2.058501    10.215181 
16750000     1.064098 0.00019997467   0.48078373  0.021322358            0   0.45946137    1.5828458    2.0636295    8.8894314 
16755000    1.0585196 -0.00013908883    0.5163188   0.03182872            0   0.48449008    1.5745479    2.0908667   -2.6566988 
16760000    1.0395595 1.9038371e-05   0.51556642  0.022911565            0   0.49265485    1.5463448    2.0619112    2.7117542 
16765000     1.088955 0.00024445786   0.43440158  0.022199746            0   0.41220183    1.6198206    2.0542221    10.398384 
16770000    1.0189831 0.00015771743   0.54911151  0.043945325            0   0.50516618    1.5157374    2.0648489    7.4482705 
16775000    1.0678156 6.200891e-05   0.46689328  0.026060471            0    0.4408328    1.5883757     2.055269    4.1718398 
16780000    1.0712796 4.6552524e-05   0.47895311   0.01005303            0   0.46890008    1.5935284    2.0724815    3.6614743 
16785000    1.0437092 -5.9866892e-06   0.49307081 0.0027340407            0   0.49033677    1.5525174    2.0455882    1.8412426 
16790000    1.0887278 -0.00012810921   0.46202163 0.0052354895            0   0.45678614    1.6194827    2.0815043   -2.2912903 
16795000     1.127563 -5.323155e-05   0.42882399 0.0061762131            0   0.42264777      1.67725     2.106074   0.28910374 
16800000    1.0837789 6.2929388e-05   0.45590982 0.0091744826            0   0.44673534    1.6121211    2.0680309    4.2160207 
16805000    1.1307544 0.00010529671   0.40170882  0.026856566            0   0.37485225    1.6819972     2.083706    5.6778338 
16810000    1.0868697 6.5545883e-05   0.45120938  0.031361687            0    0.4198477    1.6167187     2.067928    4.3052275 
16815000    1.0890694 5.0612388e-05   0.46358378  0.024153093            0   0.43943069    1.6199908    2.0835746    3.8111441 
16820000    1.0950047 -4.5034073e-05   0.45874318 0.0083563744            0   0.45038681    1.6288195    2.0875626    0.5503996 
16825000    1.0854967 -8.7454322e-05   0.47206081  0.014447013            0    0.4576138    1.6146763    2.0867371  -0.89837043 
16830000    1.0463934 -1.3872448e-05   0.50206391  0.025883875            0   0.47618003    1.5565103    2.0585742    1.5850613 
16835000    1.0810161 4.5673483e-05   0.45814449   0.02497604            0   0.43316845    1.6080114    2.0661559    3.6251441 
16840000    1.0552028 9.0225445e-05    0.5076414  0.065211873            0   0.44242952    1.5696142    2.0772556    5.1569508 
16845000    1.0794263 3.9021617e-05   0.46590844  0.038389473            0   0.42751897    1.6056466    2.0715551    3.4034929 
16850000     1.133225 3.388198e-05   0.38119782 0.0085280708            0   0.37266975    1.6856721      2.06687    3.2233749 
16855000     1.094467 5.2151918e-05   0.42766415  0.016864659            0   0.41079949    1.6280196    2.0556838    3.8358026 
16860000    1.0554017 4.7319879e-05   0.44758583  0.039749236            0    0.4078366      1.56991    2.0174959    3.6326811 
16865000    1.0703473 8.4518535e-05   0.43250588  0.015735855            0   0.41677002    1.5921417    2.0246475    4.9095468 
16870000    1.0124829 0.00015227919   0.51219285  0.017656246            0   0.49453661    1.5060683    2.0182611    7.2160575 
16875000      1.04994 0.00011706419   0.45153575  0.034550922            0   0.41698483    1.5617858    2.0133215    6.0091126 
16880000    1.0408021 3.6971735e-05    0.4494151  0.018713509            0   0.43070159    1.5481932    1.9976083    3.2595768 
16885000    1.0254726 6.6113566e-05   0.48787639  0.053392459            0   0.43448393    1.5253905    2.0132669    4.2699433 
16890000    1.0339681 -0.00010929075   0.51387893  0.040633783            0   0.47324514    1.5380275    2.0519064   -1.6785512 
16895000    1.0337476 -0.00013923838   0.50743912  0.018300625            0    0.4891385    1.5376995    2.0451386   -2.7075312 
16900000    1.0212626 3.3932266e-05   0.49740309  0.014155197            0    0.4832479    1.5191281    2.0165312    3.1747525 
16905000    1.0186483 4.4037803e-05   0.50646132  0.033095074            0   0.47336624    1.5152393    2.0217007    3.5248577 
16910000    1.0079174 -2.6107775e-05   0.53992667  0.072206324            0   0.46772034    1.4992771    2.0392037    1.1480583 
16915000    1.0207187 -5.1999521e-05   0.52417271  0.061353839            0   0.46281887     1.518319    2.0424917   0.26757474 
16920000    1.0560818 -7.5586433e-05   0.47823457  0.027138378            0   0.45109619    1.5709217    2.0491562   -0.5308607 
16925000    1.0230066 -0.00012638028    0.5418792  0.058909562            0   0.48296964    1.5217223    2.0636015   -2.2501786 
16930000    1.0827785 -1.3053517e-05   0.46537326  0.063662638            0   0.40171062     1.610633    2.0760062    1.6304462 
16935000    1.0764375 5.3827238e-05   0.49747526  0.014792084            0   0.48268317    1.6012008    2.0986761    3.9359792 
16940000    1.1342041 0.00017101474   0.38460446  0.025552833            0   0.35905162    1.6871286     2.071733    7.9090363 
16945000    1.0785663 0.00016167502   0.44296273  0.029508365            0   0.41345437    1.6043674    2.0473302    7.5658375 
16950000    1.0749249 -7.6987373e-05    0.4638464   0.01230134            0   0.45154506    1.5989508    2.0627972  -0.56503845 
16955000    1.0672018 -0.00025247466   0.48178757  0.018697485            0   0.46309008    1.5874626    2.0692502   -6.5485516 
16960000    1.0755785 -9.4097902e-05   0.46154517 0.0073301215            0   0.45421504    1.5999231    2.0614682   -1.1504068 
16965000    1.1036124 6.6724276e-05   0.40354551 0.0099183833            0   0.39362713    1.6416234    2.0451689    4.3226909 
16970000     1.093285 0.00012917751   0.42656236   0.01552765            0   0.41103471    1.6262614    2.0528238    6.4620828 
16975000    1.1145432 0.00010530713   0.39382764  0.018381888            0   0.37544575     1.657883    2.0517107    5.6461941 
16980000    1.0365366 -5.9563509e-05   0.53310923  0.015028049            0   0.51808118    1.5418483    2.0749575  0.041856393 
16985000    1.0948093 -7.6213619e-05    0.4709895  0.017592338            0   0.45339717    1.6285289    2.0995184  -0.50190648 
16990000     1.124504 0.00010485522   0.41002321   0.02436366            0   0.38565955    1.6726997    2.0827229     5.661781 
16995000    1.0575556 0.00011171124   0.51969918  0.023731228            0   0.49596795     1.573114    2.0928131      5.90589 
17000000    1.0482913 4.7025453e-05   0.52188857  0.076973894            0   0.44491468    1.5593333    2.0812218    3.6863573 
17005000    1.0669662 8.9058403e-05   0.48289245  0.022339867            0   0.46055259    1.5871122    2.0700046    5.1098648 
17010000    1.0602823 -3.9320367e-05   0.49500819  0.025364128            0   0.46964407    1.5771699    2.0721781   0.73004293 
17015000    1.0656227 -0.00015395469   0.51424192   0.01284499            0   0.50139693    1.5851138    2.0993557   -3.1556311 
17020000    1.0466648 3.9810006e-05   0.54999346  0.020826918            0   0.52916655    1.5569139    2.1069074    3.4657556 
17025000    1.0967903 0.00015360477   0.49808132  0.027468575            0   0.47061275    1.6314756    2.1295569    7.3725998 
17030000    1.1412642 0.00012129182   0.44410529  0.028086369            0   0.41601892    1.6976305    2.1417358    6.2818298 
17035000    1.1081263 9.3222292e-06   0.48679535  0.034748227            0   0.45204712    1.6483378    2.1351332    2.4533319 
17040000     1.128147 -0.00011323466   0.47697329  0.033404452            0   0.44356883    1.6781186    2.1550919   -1.7099845 
17045000    1.1072466 -0.00010196328   0.52713956  0.018730596            0   0.50840897    1.6470293    2.1741689   -1.3061777 
17050000    1.1089181 -0.00012775008   0.52652838  0.035990069            0   0.49053831    1.6495156     2.176044    -2.184492 
17055000    1.1663136 -8.7729923e-05   0.45323267  0.010185861            0   0.44304681    1.7348915    2.1881241  -0.80639058 
17060000    1.1387991 -7.4636225e-05   0.50809732 0.00092890129            0   0.50716842    1.6939636    2.2020609  -0.34552223 
17065000    1.1071415 4.7703066e-06    0.5454076 0.0054570343            0   0.53995057    1.6468729    2.1922805     2.355107 
17070000    1.1993517 -3.5824698e-06    0.3998378  0.019778456            0   0.38005934    1.7840357    2.1838735    2.0615918 
17075000    1.0978938 -9.0028212e-05    0.5552589  0.015523165            0   0.53973574     1.633117    2.1883759   -0.8845871 
17080000    1.1418495 4.2544104e-05   0.48597724  0.019173692            0   0.46680355    1.6985011    2.1844783    3.6366504 
17085000    1.1541281 0.00013770755   0.45926584  0.024821253            0   0.43444459    1.7167655    2.1760313    6.8764491 
17090000    1.0322224 5.0820772e-05    0.6585878  0.057935007            0   0.60065279    1.5354308    2.1940186     3.928701 
17095000    1.1508358 9.2177807e-05   0.49315999  0.023357688            0    0.4698023    1.7118683    2.2050283    5.3513641 
17100000    1.1755414 8.1899288e-05   0.46402638  0.014496991            0   0.44952938    1.7486179    2.2126442    5.0081399 
17105000     1.149483 0.00010356273   0.50973972    0.0118356            0   0.49790412    1.7098559    2.2195956    5.7545368 
17110000    1.1811429 4.4044693e-05   0.47703539  0.012257623            0   0.46477777      1.75695    2.2339854    3.7373776 
17115000    1.1243121 -2.1176532e-05   0.54648634 0.0098118431            0    0.5366745    1.6724143    2.2189006     1.496075 
17120000    1.1415495 -4.1131237e-05   0.51009964  0.022229442            0    0.4878702    1.6980549    2.2081545    0.8042083 
17125000    1.0693778 -7.0642183e-05   0.60845424   0.03495951            0   0.57349473    1.5906995    2.1991538  -0.21209942 
17130000    1.1900515   8.5548e-05    0.4585694 0.0068287114            0   0.45174069    1.7702016     2.228771    5.1488094 
17135000    1.1622658 -2.4868055e-05   0.47616742  0.016114347            0   0.46005307    1.7288704    2.2050378    1.3562082 
17140000    1.1249486 -2.1258963e-05   0.53018757  0.029339536            0   0.50084803    1.6733611    2.2035487    1.4779094 
17145000    1.0893747 1.3587444e-05   0.55559989  0.020818191            0    0.5347817    1.6204449    2.1760448    2.6398295 
17150000    1.1274802 7.2502682e-05   0.49500075  0.023128872            0   0.47187188    1.6771268    2.1721275    4.6468857 
17155000    1.0887056 8.3522576e-05   0.56626966  0.015960523            0   0.55030913    1.6194496    2.1857192    5.0366231 
17160000    1.0605886 -3.0066526e-05   0.58983037  0.048781211            0   0.54104916    1.5776255    2.1674559    1.1411851 
17165000    1.0765561 -0.00011634021   0.57284483  0.011137074            0   0.56170775    1.6013772     2.174222   -1.7968571 
17170000    1.0934513 3.8695738e-05   0.55692817  0.019699906            0   0.53722826    1.6265089     2.183437    3.5042516 
17175000    1.1031554 0.00021118484   0.56714279  0.058662798            0   0.50847999    1.6409437    2.2080865    9.4165291 
17180000    1.1869084 0.00014892687   0.46653253  0.011640783            0   0.45489175    1.7655262    2.2320587    7.3154292 
17185000    1.1754138 5.1627586e-05   0.47506602 0.0076741215            0    0.4673919    1.7484281    2.2234941    3.9857157 
17190000    1.1238521 -5.0342715e-06   0.52027835 0.0089686639            0   0.51130969      1.67173    2.1920083    2.0201719 
17195000    1.1226966 -5.7542707e-05   0.50090435  0.015283925            0   0.48562043    1.6700112    2.1709156   0.20679118 
17200000    1.1214026 1.4186835e-07    0.5024229  0.034406053            0   0.46801684    1.6680863    2.1705092    2.1753516 
17205000    1.1368621 1.8540243e-05    0.4579689  0.024284483            0   0.43368442    1.6910824    2.1490513    2.7818916 
17210000    1.1107542 -0.00017466388   0.48962976  0.020793253            0   0.46883651    1.6522469    2.1418767   -3.8199837 
17215000    1.0902258 -5.1039084e-05   0.51116994  0.016981418            0   0.49418852    1.6217109    2.1328809   0.39074679 
17220000    1.0958141 0.00019645037   0.52239807 0.0054963095            0   0.51690176    1.6300235    2.1524216    8.8579274 
17225000    1.0702844 5.6993623e-05   0.52731509  0.013041881            0   0.51427321     1.592048    2.1193631    4.0647454 
17230000     1.059042 -4.0341668e-05   0.54787939  0.025016367            0   0.52286302     1.575325    2.1232044   0.74620879 
17235000    1.0760035 -0.00011448256   0.54031297  0.013485795            0   0.52682717    1.6005552    2.1408682   -1.7668033 
17240000    1.0146099 -0.00012627186   0.64687553   0.02372448            0   0.62315105    1.5092322    2.1561078   -2.1539716 
17245000     1.148825 2.3147784e-05   0.47263259  0.027788763            0   0.44484383    1.7088772    2.1815098    2.9716208 
17250000      1.06698 8.3866903e-05   0.58918074  0.043222189            0   0.54595855    1.5871328    2.1763135    5.0389705 
17255000    1.1701379 5.0645581e-05   0.43713873  0.020321445            0   0.41681729    1.7405801    2.1777188    3.9064213 
17260000    1.0646115 -3.6276886e-05    0.5963788  0.025874026            0   0.57050477    1.5836097    2.1799885   0.94173743 
17265000    1.0763735 -0.00010551553   0.56512176  0.022921691            0   0.54220007    1.6011055    2.1662273   -1.4353695 
17270000    1.1417097 -0.00011049068   0.47992745  0.014219638            0   0.46570781    1.6982931    2.1782206   -1.5931945 
17275000    1.1083426 2.7824983e-05   0.52181497  0.011457012            0   0.51035795    1.6486596    2.1704746     3.120234 
17280000    1.1507887 7.9009177e-05   0.45701044  0.012731636            0    0.4442788    1.7117981    2.1688086    4.8656552 
17285000    1.0319158 0.00021790211   0.62393237  0.019994261            0   0.60393811    1.5349748    2.1589071    9.5966324 
17290000    1.1343797 7.967676e-05   0.46469926  0.021879925            0   0.44281934    1.6873899    2.1520891    4.8717226 
17295000    1.0644213 -0.00012727056   0.56592495   0.02895233            0   0.53697262    1.5833267    2.1492516   -2.1949168 
17300000    1.0882429 -0.0001072644    0.5026049  0.038172469            0   0.46443243    1.6187613    2.1213662   -1.5399252 
17305000     1.068672 1.5642479e-05   0.54349861  0.014642472            0   0.52885614    1.5896496    2.1331483    2.6670782 
17310000    1.0815571 0.00013848545   0.52885127  0.018195946            0   0.51065533    1.6088162    2.1376675    6.8646376 
17315000    1.0699415 6.5237892e-05   0.53600408  0.052603567            0   0.48340051     1.591538     2.127542    4.3543288 
17320000    1.0633758 0.00011584032   0.55106806  0.030489701            0   0.52057836    1.5817716    2.1328396    6.0868559 
17325000    1.0269698 0.0001249218   0.59400818  0.062821644            0   0.53118654    1.5276176    2.1216258    6.3856232 
17330000    1.0493828 1.3068037e-05   0.58532918  0.024249511            0   0.56107967    1.5609569     2.146286    2.5923417 
17335000    1.0086855 -0.00012161919   0.63345261  0.011123767            0   0.62232884    1.5004197    2.1338723    -2.017396 
17340000    1.0701895 -0.00023158597   0.53024957  0.011622132            0   0.51862744    1.5919069    2.1221564   -5.7826446 
17345000    1.0694253 -0.00010627701   0.56014302  0.022465756            0   0.53767727    1.5907702    2.1509132   -1.4766755 
17350000    1.0773895 8.953278e-05   0.52276045  0.010788407            0   0.51197205    1.6026169    2.1253773    5.1814296 
17355000    1.1086431 5.3914701e-05   0.47078539 0.0058098117            0   0.46497557    1.6491066    2.1198919    3.9601804 
17360000     1.052398 -2.3034614e-05   0.58244047 0.0096442416            0   0.57279622     1.565442    2.1478824    1.3616343 
17365000    1.0826357 4.326551e-05   0.54513974  0.025715751            0   0.51942399    1.6104206    2.1555603    3.6323564 
17370000    1.0987914 -2.4007042e-05   0.55698228  0.030671044            0   0.52631123    1.6344522    2.1914344    1.3719941 
17375000    1.0703823 1.4789116e-05   0.63777749   0.02625643            0   0.61152106    1.5921937    2.2299712     2.734773 
17380000    1.1297092 4.6573332e-05   0.53550389  0.021870601            0   0.51363329    1.6804424    2.2159463    3.8056494 
17385000    1.1116302 2.6802846e-05    0.5537529 0.0072223947            0   0.54653051      1.65355    2.2073029    3.1221733 
17390000     1.092216 -7.3858419e-05   0.57562175 0.0056689736            0   0.56995278    1.6246714    2.2002931  -0.32074092 
17395000    1.1482455  0.000172598    0.5000525  0.055551599            0    0.4445009    1.7080152    2.2080677    8.0994128 
17400000    1.0986223 0.00033855254   0.58202166  0.010520006            0   0.57150165    1.6342007    2.2162224    13.772149 
17405000    1.1224576 -7.3386349e-06   0.54418923  0.001841027            0    0.5423482    1.6696556    2.2138449    1.9633528 
17410000    1.1463161 -1.8942817e-05    0.4952413 0.0088786654            0   0.48636264    1.7051452    2.2003865     1.553805 
17415000    1.0350383 -0.00013920115   0.65119968  0.019947374            0    0.6312523    1.5396195    2.1908192     -2.56058 
17420000    1.1791697 -7.3866771e-05   0.45651158  0.014848779            0    0.4416628    1.7540149    2.2105265  -0.31079259 
17425000    1.0815379 8.1185064e-05   0.59051997  0.015483282            0   0.57503669    1.6087876    2.1993076    4.9704244 
17430000    1.1309352 -3.3458721e-05   0.53172713  0.014708279            0   0.51701885    1.6822661    2.2139932    1.0719356 
17435000    1.1527837 -5.6439233e-05   0.49709769 0.0063470077            0   0.49075069    1.7147657    2.2118634   0.28540424 
17440000    1.1287521 0.00010592546   0.54866634 0.0096608412            0    0.5390055    1.6790188    2.2276851     5.843274 
17445000    1.0850316 6.4805745e-05   0.60891306  0.019214338            0   0.58969873    1.6139845    2.2228976    4.4349337 
17450000    1.0877616 -5.1181448e-05   0.59217142  0.016882475            0   0.57528894    1.6180454    2.2102168   0.46322342 
17455000     1.153859 9.558359e-05   0.50820572  0.010307407            0   0.49789831    1.7163653     2.224571    5.4871576 
17460000    1.0754685 0.00010658503   0.60544043  0.017674455            0   0.58776598    1.5997594    2.2051998    5.8433021 
17465000     1.154606 0.00013873882    0.5031587  0.013425041            0   0.48973366    1.7174764    2.2206351    6.9562534 
17470000    1.1135867 -7.5578326e-06   0.55118555 0.0076708509            0    0.5435147    1.6564602    2.2076458    1.9496717 
17475000    1.0922137 -7.1634982e-05   0.58013118  0.023961452            0   0.55616973    1.6246679    2.2047991  -0.24034165 
17480000    1.1096878 -0.00020911318   0.52954528  0.048664488            0   0.48088079    1.6506606    2.1802058   -4.9575241 
17485000    1.1385313 8.7850677e-05   0.50309715   0.04008382            0   0.46301333    1.6935653    2.1966625    5.1952989 
17490000    1.0847526 8.5366098e-05   0.58624305  0.024338092            0   0.56190496    1.6135696    2.1998126    5.1136421 
17495000    1.1145431 -0.0001333702    0.5440384  0.020144834            0   0.52389356    1.6578829    2.2019213   -2.3504481 
17500000    1.1674246 -5.813343e-05   0.48577777  0.014580358            0   0.47119741    1.7365441    2.2223219   0.23803416 
17505000    1.1347531 2.5682137e-05   0.53192466 0.0059527165            0   0.52597195    1.6879452    2.2198698    3.0964868 
17510000    1.0636249 -3.9037373e-05   0.62512582 0.0041469632            0   0.62097886     1.582142    2.2072679   0.87479219 
17515000    1.0889017 -0.000137775   0.59587208  0.010577914            0   0.58529417    1.6197413    2.2156134   -2.4871068 
17520000    1.1009581 7.5074598e-05   0.58241163  0.015904286            0   0.56650735    1.6376752    2.2200868    4.7826331 
17525000    1.0841878 4.5793035e-05   0.60258856  0.015978721            0   0.58660984    1.6127293    2.2153179    3.7783868 
17530000      1.06782 -7.9731289e-05   0.62536414  0.037389045            0    0.5879751    1.5883823    2.2137464  -0.50774828 
17535000    1.0496492 4.0392129e-05   0.65277943   0.02099667            0   0.63178276    1.5613531    2.2141326    3.5928506 
17540000    1.1238481 -6.3459449e-06   0.55822117 0.0043248948            0   0.55389627     1.671724    2.2299452     2.013337 
17545000    1.1461051 -9.8862951e-05    0.5312268  0.018339865            0   0.51288693    1.7048314    2.2360582   -1.1384639 
17550000    1.1567363 2.2178337e-05    0.5209735  0.011677956            0   0.50929555    1.7206453    2.2416188    2.9986394 
17555000    1.0687836 0.00014778533    0.6242415  0.015929024            0   0.60831248    1.5898156    2.2140571    7.2584632 
17560000    1.0491172 4.2587989e-05   0.62445905  0.029843605            0   0.59461545    1.5605619    2.1850209    3.6386909 
17565000    1.0839244 -6.3843105e-05   0.58591043   0.01809515            0   0.56781528    1.6123376     2.198248  0.019070022 
17570000     1.120566 8.0319944e-05   0.51808896  0.010094789            0   0.50799417    1.6668419    2.1849309    4.9265183 
17575000    1.0698782 5.0859766e-05   0.58182317 0.0072231902            0   0.57459998    1.5914438     2.173267    3.9092804 
17580000    1.0628472 -0.00013449706   0.57428399  0.012636365            0   0.56164762    1.5809852    2.1552692   -2.4355638 
17585000    1.0979218 -7.3188854e-05   0.50138127  0.019157102            0   0.48222416    1.6331587    2.1345399  -0.36363962 
17590000    1.0562979 -1.7606851e-05   0.53379813 0.0079205461            0   0.52587758    1.5712432    2.1050413    1.5040608 
17595000    1.0422147 7.3719791e-06   0.57185557  0.016182537            0   0.55567303    1.5502944      2.12215    2.3737802 
17600000    1.0150799 0.00012364253   0.58636205  0.076810071            0   0.50955198    1.5099313    2.0962933    6.3166251 
17605000    1.0292373 4.3948255e-05   0.55736205  0.025471783            0   0.53189027    1.5309904    2.0883525    3.5884529 
17610000    1.0722059 5.9510551e-05   0.50074681   0.01700371            0    0.4837431    1.5949063    2.0956531    4.1269465 
17615000    1.0544061 -6.3359048e-06   0.52128071  0.020400267            0   0.50088044    1.5684291    2.0897098    1.8734442 
17620000    1.0401836 -2.1014118e-05   0.54768604  0.039491102            0   0.50819493    1.5472731    2.0949591    1.3776772 
17625000    1.0868071 -0.00010506136   0.49503466  0.032038963            0   0.46299569    1.6166255    2.1116602   -1.4744341 
17630000    1.0927523 -5.9106123e-05   0.48719823  0.004322987            0   0.48287524    1.6254691    2.1126673  0.095178335 
17635000    1.0264197 8.5040715e-05   0.55259059  0.011205137            0   0.54138545    1.5267993    2.0793899     4.982113 
17640000      1.10063 4.174789e-05   0.45779989  0.024353021            0   0.43344687    1.6371872    2.0949871    3.5199817 
17645000    1.0840504 -0.00012279378   0.47758351 0.0044117272            0   0.47317178     1.612525    2.0901085   -2.1012525 
17650000    1.0263531 -9.5467106e-05   0.56822347            0            0   0.56822347    1.5267002    2.0949237   -1.1636869 
17655000    1.0505587 -2.6528062e-05   0.54206729 0.0013888388            0   0.54067846    1.5627061    2.1047734    1.1992822 
17660000    1.0513783  7.20801e-05    0.5287515  0.025289069            0   0.50346243    1.5639252    2.0926767    4.5530108 
17665000    1.0763287 0.00016090381    0.4931711  0.012741627            0   0.48042947     1.601039    2.0942101    7.5863934 
17670000    1.0261007 5.0116086e-05     0.558041  0.016601762            0   0.54143923    1.5263247    2.0843657    3.7949948 
17675000    1.0716012 8.4395397e-05   0.51533314  0.018465727            0   0.49686742    1.5940067    2.1093399    4.9900361 
17680000    1.0432374 0.00012569449   0.57173718 0.0042015967            0   0.56753558    1.5518156    2.1235528    6.4139248 
17685000    1.0174127 9.2825775e-05   0.59318326 0.0064723813            0   0.58671088    1.5134015    2.1065847    5.2750378 
17690000    1.0548686 7.0679269e-05   0.52747674  0.020059678            0   0.50741707     1.569117    2.0965937    4.5091128 
17695000    1.0314132 -9.5192849e-05   0.56388959  0.056590722            0   0.50729887    1.5342272    2.0981168   -1.1511324 
17700000   0.98192826 -0.00021801018   0.65109307   0.05673877            0    0.5943543    1.4606183    2.1117114   -5.3297028 
17705000    1.0203871 -8.4620909e-05   0.59270804  0.052969582            0   0.53973846    1.5178258    2.1105338  -0.77785983 
17710000    1.0575111 -8.5525186e-06   0.52949477  0.035613656            0   0.49388111    1.5730478    2.1025426    1.8106166 
17715000    1.0213311 3.7771868e-05   0.55428066   0.01113514            0   0.54314552      1.51923    2.0735106    3.3627904 
17720000    1.0463249 0.00010666971   0.51724719 0.0098565017            0   0.50739069    1.5564083    2.0736555    5.7146482 
17725000    1.0808359 3.4838496e-05   0.42948712 0.0095600434            0   0.41992708    1.6077434    2.0372305    3.2263845 
17730000    1.0618864 5.4724288e-05   0.45257177  0.012442479            0    0.4401293     1.579556    2.0321278    3.9000501 
17735000    1.0852003 8.6723887e-05   0.41468022  0.011910751            0   0.40276947    1.6142354    2.0289157     4.989091 
17740000    1.0150674 -2.2777807e-05   0.48333036 0.0053734912            0   0.47795687    1.5099128    1.9932432    1.2157607 
17745000    1.0033505 0.00010261632     0.514663 0.0033218005            0    0.5113412    1.4924838    2.0071468    5.5097839 
17750000    1.0633822 0.00012989722    0.4231054 0.0041856572            0   0.41891975     1.581781    2.0048864    6.4387116 
17755000    1.0030456 -3.3804343e-06   0.51993878 0.0071933481            0   0.51274544    1.4920303    2.0119691    1.8965836 
17760000   0.98544981 -7.4512511e-05    0.5612769  0.021808363            0   0.53946854    1.4658566    2.0271335  -0.51622689 
17765000     1.025193 0.00018839135   0.50046737  0.019564154            0   0.48090322    1.5249746    2.0254419    8.4558666 
17770000     1.076435 0.00019599653   0.40580493 0.0077519867            0   0.39805294    1.6011971     2.007002    8.6970168 
17775000    1.0208686 -8.9432758e-05   0.50884021  0.016322157            0   0.49251805     1.518542    2.0273822   -1.0252559 
17780000    1.0396081 -0.00013921487   0.47582869  0.029217814            0   0.44661087     1.546417    2.0222457   -2.7296219 
17785000    1.0527422 3.6563912e-05   0.45756302 0.0044483498            0   0.45311467    1.5659541    2.0235171    3.2715653 
17790000    1.0625897 5.1495549e-05   0.43315249  0.011117037            0   0.42203545    1.5806022    2.0137547    3.7714694 
17795000   0.95973503 -9.0851836e-05   0.58501261  0.040838265            0   0.54417435    1.4276059    2.0126185   -1.0884575 
17800000    1.0114537 -0.00010449335   0.50934857  0.020930967            0   0.48841761    1.5045374     2.013886   -1.5528205 
17805000    1.0229023 1.3692619e-05   0.52278827  0.025972843            0   0.49681543    1.5215672    2.0443554    2.5117302 
17810000    1.0542887 -2.0118589e-05   0.46593985  0.011363125            0   0.45457673    1.5682545    2.0341944    1.3474798 
17815000    1.0263915 -3.5424543e-05   0.50923151  0.016114764            0   0.49311675    1.5267573    2.0359889   0.82683111 
17820000    1.0218982 -1.8380837e-05   0.52773236  0.015735854            0   0.51199651    1.5200736     2.047806    1.4204067 
17825000    1.0424963 6.4536812e-06   0.49982322 0.0058997679            0   0.49392345    1.5507133    2.0505365    2.2708221 
17830000    1.0985755 5.9119418e-05    0.4479196  0.016367072            0   0.43155253    1.6341311    2.0820507    4.0999935 
17835000   0.98056013 -5.9125922e-05   0.62966019  0.032150805            0   0.59750938    1.4585832    2.0882434   0.07007858 
17840000    1.0275065 -1.3135694e-05    0.5456902  0.011459228            0   0.53423097     1.528416    2.0741062    1.6257411 
17845000     1.017619 -3.4382419e-05    0.5195828  0.018771656            0   0.50081115    1.5137082    2.0332911    0.8597045 
17850000   0.98244254 -0.0001245376   0.58702117  0.048735253            0   0.53828591    1.4613833    2.0484044   -2.2024791 
17855000     1.060498 7.1815453e-05   0.47686788  0.035188254            0   0.44167963    1.5774908    2.0543587    4.5056595 
17860000    1.0275232 4.3382074e-05   0.51547944  0.027233998            0   0.48824544    1.5284408    2.0439202     3.524695 
17865000    1.0247556 1.1274279e-05   0.52452998 0.0015475446            0   0.52298243    1.5243239    2.0488539    2.4336826 
17870000    1.0280601 -1.7821264e-05    0.4843484 0.00042555006            0   0.48392285    1.5292394    2.0135878    1.4052886 
17875000     1.066013 1.3012323e-05    0.4441467 0.0069768151            0   0.43716988    1.5856943     2.029841     2.473995 
17880000    1.0316709 7.3624157e-05    0.4898689   0.03104754            0   0.45882136    1.5346105    2.0244794    4.5375173 
17885000    1.0641891 -3.2267333e-05   0.44598785 0.0070571328            0   0.43893072    1.5829813    2.0289691   0.92757747 
17890000   0.97943065 -0.00011241868   0.56680007 0.0053508047            0   0.56144927    1.4569031    2.0237032    -1.813521 
17895000    1.0293444 -0.00010131655   0.51866448 0.0089354483            0   0.50972903    1.5311498    2.0498143   -1.4084574 
17900000    1.0954357 4.8483483e-06   0.42138131  0.033234975            0   0.38814634    1.6294605    2.0508419    2.2163321 
17905000    1.0367611 6.5096161e-05   0.50994459  0.031031688            0    0.4789129    1.5421821    2.0521267    4.2740757 
17910000   0.99354195 -0.00014736963   0.55509056  0.037547454            0   0.51754311    1.4778937    2.0329842   -2.9972324 
17915000    1.0085698 8.5196507e-05   0.53996308  0.033937973            0   0.50602511    1.5002475    2.0402106    4.9482514 
17920000    1.0572809 0.00010713518   0.49248429  0.015560213            0   0.47692408    1.5727053    2.0651896    5.7220705 
17925000    1.0199697 -4.0386018e-05   0.52387131  0.019759087            0   0.50411222    1.5172049    2.0410762   0.66256678 
17930000   0.97628761 -3.9895943e-05   0.58079215  0.030654746            0    0.5501374    1.4522278      2.03302   0.67123844 
17935000   0.99997153 -2.9217103e-05   0.54491002  0.038632584            0   0.50627743    1.4874577    2.0323677    1.0350906 
17940000    1.0218211 -4.3525141e-05   0.51062189  0.018216967            0   0.49240492    1.5199589    2.0305807    0.5449226 
17945000    1.0238672 -0.00012073999   0.50359131  0.014723952            0   0.48886736    1.5230024    2.0265937   -2.0946647 
17950000    1.0235268 -6.6177971e-05   0.49535458 0.0094030162            0   0.48595156    1.5224962    2.0178508    -0.241024 
17955000   0.96593197 -0.00016537664   0.58993128 0.0074799766            0   0.58245131    1.4368238    2.0267551   -3.6181009 
17960000    1.0290024 9.9504557e-05    0.4923451   0.01824225            0   0.47410285     1.530641    2.0229861    5.4194084 
17965000    1.0236047 5.6004337e-05   0.49862422  0.025346278            0   0.47327794     1.522612    2.0212362    3.9328509 
17970000   0.99457189 -0.00012638101    0.5294538  0.011225053            0   0.51822875    1.4794257    2.0088795   -2.3049257 
17975000   0.97654266 -4.3788186e-05   0.56281107 0.0017871453            0   0.56102393    1.4526072    2.0154183   0.52078154 
17980000    1.0390285 -0.00014075581   0.44273186 0.0034015783            0   0.43933028     1.545555    1.9882868   -2.8161781 
17985000    1.0460293 -3.944577e-05   0.43394485 0.0029374649            0   0.43100739    1.5559686    1.9899134   0.64349781 
17990000     1.000137 -3.774468e-05   0.50817749 0.0059640928            0    0.5022134    1.4877038    1.9958813   0.70752953 
17995000   0.98672345 -3.9629105e-05   0.52143976 0.0087010456            0   0.51273872    1.4677511    1.9891909   0.63651746 
18000000     1.076706 1.4349912e-05   0.38389547 0.0072183391            0   0.37667713    1.6016001    1.9854956    2.4753059 
18005000    1.0005622 2.1436322e-05   0.48743477  0.010796621            0   0.47663815    1.4883363    1.9757711    2.7074642 
18010000   0.99752403 -2.6266349e-05   0.50110898  0.021062275            0   0.48004671     1.483817     1.984926    1.0883679 
18015000   0.97965343 6.9021301e-05   0.51116729  0.033701596            0    0.4774657    1.4572345    1.9684018    4.3243288 
18020000   0.98079504 0.00010843925   0.50469536  0.036668297            0   0.46802707    1.4589326     1.963628     5.665021 
18025000   0.96687861 -8.8931263e-05   0.53200427  0.044443981            0   0.48756029    1.4382319    1.9702362   -1.0652842 
18030000    1.0127744 -0.00011575689   0.48094564  0.061417834            0    0.4195278    1.5065019    1.9874475    -1.963721 
18035000   0.99477027 -0.00017594652   0.50918381  0.042838757            0   0.46634505    1.4797208    1.9889046   -4.0167366 
18040000    1.0631862 -0.00010993901   0.42956584  0.043193189            0   0.38637265    1.5814895    2.0110554   -1.7415295 
18045000   0.99770068 -0.00012065131   0.50453898  0.027458294            0   0.47708069    1.4840798    1.9886187   -2.1296126 
18050000   0.97428084 -1.8137325e-05   0.52437519 0.0040999025            0   0.52027529    1.4492427    1.9736179    1.3545306 
18055000    1.0083769 0.00014061138   0.50176316  0.013884182            0   0.48787898    1.4999607    2.0017238    6.8012589 
18060000   0.95303173 2.0674622e-05   0.57822774  0.040622993            0   0.53760475    1.4176347    1.9958624    2.7015562 
18065000   0.98134286  5.33041e-05   0.53917651  0.020383555            0   0.51879296    1.4597475     1.998924    3.8183706 
18070000   0.95255588 1.4937628e-07   0.56073878  0.013998539            0   0.54674024    1.4169269    1.9776657    1.9827644 
18075000   0.99515884 -0.00010593664   0.48754263  0.015352482            0   0.47219015    1.4802988    1.9678414   -1.6481292 
18080000   0.99514069 -4.9302251e-05   0.47223422  0.011958887            0   0.46027534    1.4802718     1.952506   0.26965584 
18085000   0.95199068 -2.1069059e-05   0.53438382 0.0011488291            0   0.53323499    1.4160861    1.9504699    1.2313127 
18090000   0.97936433 -0.00014514009    0.4915257 0.00052183841            0   0.49100387    1.4568044    1.9483301   -3.0057851 
18095000   0.99892782 -0.00010926226   0.46537665 0.0069863677            0   0.45839029    1.4859051    1.9512818   -1.7782032 
18100000    1.0131348 -5.649719e-05   0.45430214  0.011530605            0   0.44277153     1.507038    1.9613402  0.032902755 
18105000   0.94396513 -5.6132156e-05   0.56586873  0.016646165            0   0.54922256    1.4041481    1.9700169  0.054039272 
18110000   0.98107992 -7.3968167e-05   0.51424909  0.011833338            0   0.50241576    1.4593564    1.9736055  -0.55117462 
18115000    1.0357888 -5.7305818e-06   0.42958263  0.015041895            0   0.41454074    1.5407358    1.9703184    1.7747146 
18120000    1.0131483 -1.63491e-05   0.45651428  0.055679536            0   0.40083475    1.5070582    1.9635724    1.4055232 
18125000   0.95166602 -3.8636076e-05   0.53797267  0.012179401            0   0.52579327    1.4156032    1.9535759   0.63479781 
18130000   0.99106526 2.6298915e-05   0.47006473 0.00038952554            0   0.46967521    1.4742096    1.9442743    2.8419439 
18135000    1.0356066 -4.9720629e-05   0.42605916 0.0029354041            0   0.42312375    1.5404648    1.9665239   0.26939314 
18140000   0.92068888 2.6678464e-05   0.59057222 0.0093259159            0   0.58124631    1.3695247    1.9600969    2.8707218 
18145000   0.99266217 0.00025553326   0.49197105  0.033204483            0   0.45876657     1.476585     1.968556    10.690758 
18150000   0.94514733 3.7155256e-05   0.55842952   0.03218755            0   0.52624197    1.4059067    1.9643362    3.2325689 
18155000   0.98727352 -7.2243379e-06   0.49800342  0.024756807            0   0.47324661    1.4685694    1.9665728     1.719982 
18160000   0.99641916 -0.00015545614   0.46723442   0.01022903            0   0.45700539    1.4821735    1.9494079   -3.3568283 
18165000   0.99777713 -1.7622582e-05   0.46362602 0.0067808716            0   0.45684515    1.4841935    1.9478195     1.346302 
18170000   0.96913559 -5.686408e-05   0.52170418  0.020303766            0   0.50140041    1.4415892    1.9632934  0.022332776 
18175000   0.99236009 -0.00019695007   0.48311185  0.013507153            0    0.4696047    1.4761356    1.9592475   -4.7633147 
18180000    1.0200772 -1.9759226e-05   0.45294982  0.028569818            0      0.42438    1.5173648    1.9703146    1.2958664 
18185000    1.0347784 1.5429961e-05   0.47552706  0.021314038            0   0.45421303    1.5392328    2.0147599    2.5414359 
18190000    1.0307581 4.0444757e-05   0.49388435 0.0069263751            0   0.48695797    1.5332526     2.027137    3.4076513 
18195000    1.0345226 0.00013191885   0.48232465 0.0030408275            0   0.47928382    1.5388524     2.021177    6.5240071 
18200000   0.99805425 0.00011803427   0.53738224  0.014497694            0   0.52288454    1.4846057    2.0219879    6.0508909 
18205000    0.9965928 3.2952597e-06   0.54475477  0.011904668            0    0.5328501    1.4824318    2.0271866    2.1396648 
18210000    1.0520072 5.3201358e-05   0.47102927  0.011180286            0   0.45984899    1.5648607    2.0358899    3.8518296 
18215000    1.0740102 -2.9854961e-05   0.44981157  0.024857329            0   0.42495424    1.5975901    2.0474017    1.0283524 
18220000    1.0137809 -0.00011893181   0.53784861  0.039784877            0   0.49806373    1.5079991    2.0458477   -2.0136914 
18225000   0.99892141 0.00018532769   0.54488336  0.034614034            0   0.51026933    1.4858956     2.030779    8.3566307 
18230000    1.0084636 8.853213e-05   0.54636765  0.010282496            0   0.53608515    1.5000896    2.0464572     5.068354 
18235000    1.0497965 -0.00010294311   0.50761448  0.012836541            0   0.49477794    1.5615723    2.0691868   -1.4446047 
18240000    1.0631976 -2.9713826e-05   0.49209975  0.026641297            0   0.46545845    1.5815064    2.0736061    1.0593742 
18245000    1.0309149 3.2710784e-05   0.53485434  0.024898224            0   0.50995612     1.533486    2.0683403    3.1848684 
18250000    1.0269023 7.721534e-05   0.55827992  0.040625262            0   0.51765466    1.5275172    2.0857971     4.721414 
18255000    1.0547777 -8.3292817e-05    0.4792244  0.015644309            0   0.46358009    1.5689818    2.0482062  -0.79485528 
18260000    1.0957091 -7.9472579e-05     0.435187  0.012072697            0    0.4231143    1.6298672    2.0650542  -0.64760983 
18265000     1.091714 0.00012164939   0.44878323  0.005896001            0   0.44288722    1.6239246    2.0727078    6.2250071 
18270000    1.0174155 6.1745281e-05   0.56035933 0.0011518983            0   0.55920744    1.5134055    2.0737649    4.1813371 
18275000     1.058241 -0.00016101217   0.50354149  0.007342194            0    0.4961993    1.5741335     2.077675    -3.418207 
18280000    1.0313208 -0.00013531156   0.53167658  0.016861902            0   0.51481468    1.5340897    2.0657663   -2.5528683 
18285000    1.0227487 -6.554315e-07   0.53353331 0.0031494329            0   0.53038388    1.5213387     2.054872    2.0324999 
18290000    1.0582529 0.00010663169   0.46622595 0.00036040619            0   0.46586555    1.5741511    2.0403771    5.6800722 
18295000    1.0305324 0.00015092522   0.48245202 0.0049039369            0   0.47754809    1.5329169    2.0153689    7.1669496 
18300000   0.99986211 7.5031348e-05   0.54178233 0.0083691161            0   0.53341321    1.4872949    2.0290772    4.5901472 
18305000    1.0240925 -6.3964968e-05   0.51862775  0.016451782            0   0.50217597    1.5233377    2.0419654  -0.14137215 
18310000    1.0203974 7.2884109e-06   0.52975627  0.027053843            0   0.50270243    1.5178411    2.0475974    2.2963751 
18315000    1.0579309 -0.0001025341   0.45939024  0.021487749            0   0.43790249    1.5736721    2.0330624   -1.4667681 
18320000    1.0602076 -0.00011948631    0.4489431  0.037647603            0    0.4112955    1.5770588    2.0260019   -2.0524643 
18325000    1.0570059 -3.8695233e-05   0.47852843  0.015142008            0   0.46338643    1.5722963    2.0508247   0.73002741 
18330000    1.0589234 -4.7627773e-05   0.47320555 0.0055683391            0   0.46763721    1.5751485     2.048354   0.42265939 
18335000    1.0041119 4.2880607e-05   0.54873078 0.0057709613            0   0.54295982    1.4936164    2.0423472    3.5060053 
18340000    1.0473437 2.1299674e-05   0.45740304 0.0052133441            0    0.4521897    1.5579238    2.0153268    2.7423557 
18345000    1.0432613 -4.1231415e-05   0.47231368   0.01150284            0   0.46081084    1.5518512    2.0241649   0.61679927 
18350000    1.0835504 -5.4108226e-05   0.42382704   0.01415039            0   0.40967665    1.6117812    2.0356082   0.18871412 
18355000    1.0200227 -6.0740683e-05   0.50739715 0.0073741487            0   0.50002301    1.5172838     2.024681 -0.048601022 
18360000    1.0220465 -3.9440751e-05   0.53853365  0.022871622            0   0.51566203    1.5202941    2.0588278   0.71258347 
18365000    1.0013892 1.4675084e-05   0.57703441  0.038869774            0   0.53816463    1.4895664    2.0666008    2.5675103 
18370000    1.0479736 1.1590623e-05   0.49271401 0.0094022886            0   0.48331172    1.5588608    2.0515748    2.4472014 
18375000     1.033754 -4.5487664e-05   0.51702033 0.0089057188            0   0.50811461    1.5377091    2.0547294   0.50208382 
18380000    1.0486421 -0.00015952591    0.4622136  0.017888087            0   0.44432552    1.5598551    2.0220687   -3.4230825 
18385000    1.0802426 -3.8224348e-05    0.3964407  0.011915951            0   0.38452475    1.6068609    2.0033016   0.69857717 
18390000    1.0290291 0.00020787118   0.43833341  0.017000129            0   0.42133328    1.5306808    1.9690142    9.0643504 
18395000    1.0087564 0.0001345294   0.48469085  0.013616901            0   0.47107394    1.5005252     1.985216    6.5771529 
18400000     1.015761 7.2878157e-06    0.4696395 0.0051279919            0   0.46451151    1.5109445     1.980584    2.2293414 
18405000    1.0261167 1.8820862e-05   0.45374438  0.012895611            0   0.44084877    1.5263486     1.980093    2.6225117 
18410000    1.0269514 3.7596114e-05    0.4727084  0.019385177            0   0.45332322    1.5275903    2.0002987    3.2835793 
18415000    1.0461043 9.2314943e-05   0.49162665  0.031600134            0   0.46002652    1.5560801    2.0477068    5.1987235 
18420000    1.0417569 6.6963726e-06   0.47214765   0.01735954            0   0.45478811    1.5496134    2.0217611    2.2503306 
18425000    1.0660624 -0.00016276178   0.43867055  0.014684925            0   0.42398562    1.5857678    2.0244384   -3.5311638 
18430000     1.042891 -9.8322293e-05   0.45117466  0.015601564            0   0.43557309    1.5513003     2.002475   -1.3535927 
18435000    1.0343674 9.6569563e-06   0.46784206 0.0083442252            0   0.45949783    1.5386214    2.0064635    2.3360876 
18440000    1.0605975 7.5612581e-05    0.4284195  0.024826279            0   0.40359322    1.5776388    2.0060583    4.5869677 
18445000   0.97279724 -2.0256043e-05   0.57053221 0.0050893187            0   0.56544289    1.4470359    2.0175681    1.3261618 
18450000    1.1060374 -1.5791516e-06   0.35739095  0.012816497            0   0.34457445    1.6452306    2.0026215    1.9487198 
18455000    1.0493531 0.00013576998   0.44438161  0.015987881            0   0.42839373    1.5609127    2.0052943    6.6395765 
18460000    1.0337131 6.6501036e-05   0.46164969 0.0060554017            0   0.45559428    1.5376482    1.9992979    4.2691999 
18465000   0.91766026 -5.5069147e-05   0.59666252  0.039680465            0   0.55698205    1.3650196    1.9616822  0.081988605 
18470000   0.99210145 -7.5967834e-05   0.50024867  0.024621884            0   0.47562679    1.4757509    1.9759996  -0.61703582 
18475000   0.97319546 -3.010251e-06   0.53239433  0.034481985            0   0.49791235    1.4476282    1.9800226    1.8772727 
18480000    1.0148217 -6.4673004e-05   0.48879023  0.022940869            0   0.46584936    1.5095472    1.9983375  -0.20916774 
18485000    1.0255991 -4.3419821e-05   0.46651265  0.038076601            0   0.42843604    1.5255787    1.9920913   0.51002806 
18490000   0.98128697 0.00010365757   0.53101672  0.035918155            0   0.49509857    1.4596644    1.9906811    5.5288595 
18495000    1.0418436 6.5006116e-05   0.44738077  0.013079549            0   0.43430122    1.5497424    1.9971232    4.2159986 
18500000    1.0025317 -2.1940807e-06   0.49701323  0.028342259            0   0.46867097    1.4912659    1.9882791    1.9133878 
18505000    1.0020504 -3.6476723e-05   0.50889244  0.044653562            0   0.46423887    1.4905499    1.9994424    0.7543702 
18510000   0.97308991 -0.00014184698   0.56442494  0.024923701            0   0.53950124    1.4474712    2.0118962   -2.8298141 
18515000    1.0158232 -0.00014669158   0.48761195 0.0072325372            0   0.48037941     1.511037     1.998649   -3.0084235 
18520000    1.0141903 -3.9299709e-05   0.48670259  0.014270686            0    0.4724319    1.5086081    1.9953107   0.65388066 
18525000     1.007256 0.00016159847   0.50530805  0.029429541            0   0.47587851    1.4982933    2.0036013    7.5194958 
18530000   0.99879455 2.3461428e-05   0.53792903  0.029494517            0   0.50843451    1.4857069    2.0236359    2.8244527 
18535000    1.0150274 -6.7088596e-05   0.51034489  0.018145331            0   0.49219956    1.5098533    2.0201982   -0.2697592 
18540000    1.0373813 6.4485292e-05   0.46978468  0.013351517            0   0.45643316    1.5431047    2.0128894    4.2139874 
18545000   0.97019256 0.00014272617   0.57406802  0.038778982            0   0.53528904    1.4431614    2.0172294    6.8889495 
18550000    1.0216705 6.6444658e-05   0.47886063  0.016151205            0   0.46270942    1.5197349    1.9985956    4.2665732 
18555000    1.0385206 4.0066392e-05   0.43378105  0.042919093            0   0.39086196    1.5447994    1.9785804      3.34618 
18560000   0.96984844 -0.00011741902   0.53154259  0.035921292            0   0.49562129    1.4426496    1.9741921   -2.0337105 
18565000    1.0412692 -4.9822739e-05   0.44237266  0.019242228            0   0.42313043    1.5488879    1.9912605   0.29064438 
18570000    1.0051085 2.7907292e-05   0.48818404 0.0082637331            0   0.47992031    1.4950989    1.9832829    2.9358518 
18575000    1.0237432 -8.3189258e-06   0.49432951 0.0099743148            0    0.4843552    1.5228179    2.0171475    1.7331948 
18580000    1.0394091 -8.2854139e-06    0.4732338  0.022359395            0    0.4508744     1.546121    2.0193548     1.736546 
18585000   0.99150063 3.3071772e-05   0.55418494  0.024180249            0   0.53000469    1.4748572    2.0290421     3.157892 
18590000    1.0772636 -1.3725064e-05   0.46307142 0.0071673193            0    0.4559041    1.6024296     2.065501    1.5970188 
18595000    1.0854966 -2.0016485e-05   0.45856998  0.038073608            0   0.42049637    1.6146762    2.0732461    1.3900168 
18600000    1.0854629 -1.7835103e-05   0.45997454  0.021215565            0   0.43875897    1.6146261    2.0746006    1.4658291 
18605000   0.96340649 -0.00011012692   0.64619734  0.013765498            0   0.63243184    1.4330672    2.0792645   -1.6797342 
18610000    1.0050669 -7.5714526e-05   0.61485323   0.01033756            0   0.60451567     1.495037    2.1098903  -0.47449888 
18615000    1.0695518 -9.3175963e-05   0.50169654    0.0114952            0   0.49020133    1.5909583    2.0926549   -1.0877513 
18620000    1.0581103 -8.4418044e-05   0.53640672  0.023601104            0   0.51280561    1.5739391    2.1103458  -0.77112347 
18625000    1.0326795 2.7662255e-05   0.56013116  0.048119255            0   0.51201191    1.5361108     2.096242     3.040447 
18630000    1.1188113 3.2702885e-05   0.42742504  0.041250763            0   0.38617428    1.6642318    2.0916569    3.2079154 
18635000    1.0664991 -9.0047293e-06   0.49595891  0.029749433            0   0.46620947    1.5864175    2.0823764     1.775015 
18640000    1.0391806 -7.1887968e-05   0.53762041  0.010316122            0   0.52730429    1.5457812    2.0834016   -0.3703744 
18645000    1.0991903 -0.00010815989   0.44750528  0.015243222            0   0.43226206    1.6350456    2.0825509   -1.6093066 
18650000    1.0487003 -9.5868358e-05   0.52833261  0.040523578            0   0.48780904    1.5599417    2.0882743   -1.1840323 
18655000    1.0223599 -3.4432945e-06   0.56195467  0.024457125            0   0.53749754    1.5207603     2.082715    1.9651839 
18660000    1.0279286 0.00010097047   0.54561365 0.0061702665            0   0.53944338    1.5290438    2.0746575    5.5211162 
18665000     1.061329 -0.00012736519    0.4881083 0.0029481782            0   0.48516013    1.5787268    2.0668351   -2.2805634 
18670000    1.0236989 -6.2594333e-05   0.53685687  0.017519226            0   0.51933765    1.5227521     2.059609 -0.076944252 
18675000     1.050521 3.3061074e-05   0.49768736  0.026607132            0   0.47108023      1.56265    2.0603373     3.188822 
18680000    1.0538774 -5.6163933e-05   0.50650492  0.029206011            0   0.47729891    1.5676427    2.0741476   0.15708536 
18685000    1.0766865 3.3965283e-06   0.45490589  0.027854165            0   0.42705172    1.6015711     2.056477    2.1724119 
18690000    1.0149178 -0.00016592646   0.53750017  0.031329882            0   0.50617029    1.5096902    2.0471904   -3.6164329 
18695000    1.0388151 -8.2366998e-05   0.49147347  0.017144596            0   0.47432887    1.5452375    2.0367109  -0.77474926 
18700000    1.0713701 0.00016541564   0.42201448  0.020207113            0   0.40180736     1.593663    2.0156775    7.6618646 
18705000    1.0509796 -2.2322831e-05   0.45103972   0.02573964            0   0.42530008    1.5633322    2.0143719    1.2524193 
18710000    1.0233017 1.3767322e-05   0.51458458  0.034681223            0   0.47990336    1.5221614    2.0367459    2.5066705 
18715000     1.042872 -4.0827145e-05   0.52133358  0.010882893            0   0.51045068    1.5512722    2.0726057   0.67903918 
18720000    1.1095774  1.20326e-05   0.42256387   0.01742124            0   0.40514263    1.6504964    2.0730603    2.4837731 
18725000    1.0557958 9.7470719e-05   0.51155478  0.023072794            0   0.48848199    1.5704962     2.082051    5.4090515 
18730000    1.0811231 -1.4947264e-05   0.47258389  0.021065966            0   0.45151793    1.6081706    2.0807545    1.5705546 
18735000    1.1110731 -8.1011731e-06   0.42569291   0.04159395            0   0.38409896    1.6527212    2.0784141    1.8018941 
18740000    1.0715066 6.0429027e-05   0.46622937 0.0044456415            0   0.46178373    1.5938661    2.0600955    4.1227396 
18745000    1.0421077 -5.1371326e-05   0.49858102 0.0061921217            0    0.4923889    1.5501353    2.0487163   0.29524171 
18750000     1.049078 7.6376372e-07   0.48432506  0.011336556            0    0.4729885    1.5605036    2.0448286    2.0708984 
18755000    1.0558293 -6.5466061e-05   0.47635723  0.032127429            0    0.4442298    1.5705461    2.0469033  -0.18767158 
18760000   0.97328776 -0.00018229058   0.57562127  0.029058524            0   0.54656274    1.4477655    2.0233868   -4.1987983 
18765000    1.0470805 0.00010406004   0.46674261 0.0070530546            0   0.45968955    1.5575323    2.0242749     5.576191 
18770000    1.0361764 3.5367933e-05    0.4967122  0.016374655            0   0.48033754    1.5413124    2.0380246    3.2452501 
18775000    1.0212845 6.8944738e-05    0.5118241   0.03013867            0   0.48168543    1.5191606    2.0309848    4.3842985 
18780000     1.083363 -5.8685448e-05   0.43141464  0.015787831            0   0.41562681    1.6115024    2.0429171  0.039787134 
18785000    1.0779059 -7.3198368e-05   0.42813508  0.018864034            0   0.40927105    1.6033851    2.0315202  -0.46698412 
18790000    1.0423922 -0.00011002601   0.50189569  0.021624781            0   0.48027091    1.5505584    2.0524541   -1.7031003 
18795000    1.0783343 -3.8816404e-05   0.44162313  0.024803652            0   0.41681948    1.6040222    2.0456454   0.72071212 
18800000    1.0705919 -7.9444339e-05   0.45605042  0.027180243            0   0.42887018    1.5925054    2.0485559  -0.66314424 
18805000     1.035065 -1.6390006e-05   0.49947585  0.053602858            0   0.44587299    1.5396592    2.0391351    1.4796895 
18810000    1.0549132 -3.6553711e-05   0.48216239  0.033575161            0   0.44858723    1.5691834    2.0513458   0.80364584 
18815000     1.051028 -0.00011274359    0.4629276   0.02825189            0   0.43467571    1.5634042    2.0263318   -1.8219827 
18820000    1.0980244 1.697714e-05   0.38641048 0.0066738514            0   0.37973663    1.6333113    2.0197218    2.5992082 
18825000    1.0430674 -1.1608348e-05   0.45020094  0.019621032            0   0.43057991    1.5515628    2.0017637    1.6055321 
18830000   0.95783123 -8.1892594e-05   0.58589309  0.036239736            0   0.54965336     1.424774     2.010667  -0.78460015 
18835000    1.0096536 -8.4644771e-05   0.51718907   0.02709415            0   0.49009492    1.5018598    2.0190489  -0.87015931 
18840000    1.0513021 -7.2117153e-05   0.44741148  0.022689671            0   0.42472181    1.5638118    2.0112233  -0.45037548 
18845000    1.0008208 -0.00010985181   0.51206273  0.023393904            0   0.48866883     1.488721    2.0007837   -1.7488248 
18850000    1.0226189 -2.1892766e-05   0.47398099  0.019657526            0   0.45432346    1.5211456    1.9951266    1.2478535 
18855000    1.0339646 6.6831818e-05   0.46407823  0.031634098            0   0.43244414    1.5380224    2.0021006    4.2832934 
18860000    1.0333774 -9.0694517e-05   0.49060373  0.031598937            0   0.45900479     1.537149    2.0277527   -1.0679535 
18865000    1.0241962 -0.00014803816   0.50528046   0.01628844            0   0.48899202    1.5234919    2.0287723   -3.0242634 
18870000     1.067162 -9.403427e-05   0.44624496  0.029862839            0   0.41638212    1.5874035    2.0336485   -1.1760546 
18875000    1.0243551 5.5156253e-06   0.50510728   0.02207746            0   0.48302982    1.5237283    2.0288356    2.2171022 
18880000    1.1368798 5.4681092e-05   0.36500827  0.021907115            0   0.34310116    1.6911088     2.056117     3.922565 
18885000    1.0237723 3.8018289e-05   0.50103188  0.023670418            0   0.47736146    1.5228613    2.0238932    3.3215841 
18890000    1.0182903 1.4683822e-05   0.53551474  0.039096121            0   0.49641861    1.5147069    2.0502216    2.5514294 
18895000    1.0853451   1.0256e-05   0.47471581  0.046787696            0   0.42792811    1.6144508    2.0891666    2.4392381 
18900000     1.071782 -5.4139157e-05   0.51611398   0.03310749            0   0.48300649    1.5942758    2.1103897   0.26243987 
18905000    1.1594077 -5.281493e-05    0.4035361  0.014635035            0   0.38890107    1.7246189     2.128155   0.32540544 
18910000    1.0521289 -0.00019734452   0.52159592  0.014172465            0   0.50742346    1.5650418    2.0866377   -4.6493886 
18915000   0.99039358 -0.00018285864   0.61835513  0.030465631            0    0.5878895    1.4732105    2.0915656   -4.1500093 
18920000    1.0059354 -8.1039015e-05   0.56310302  0.053863506            0   0.50923951    1.4963289    2.0594319  -0.70669984 
18925000    1.0573538 0.00010202057   0.49907435  0.048505922            0   0.45056843    1.5728138    2.0718881    5.5541902 
18930000    1.0677176 9.9080959e-05   0.49344354  0.034775492            0   0.45866805      1.58823    2.0816735    5.4636369 
18935000    1.0473524 -0.0001061216   0.51145693  0.013826316            0   0.49763061    1.5579368    2.0693937   -1.5528903 
18940000    1.0059475 1.1915368e-05   0.53508881 0.0083929727            0   0.52669584    1.4963469    2.0314357    2.4381469 
18945000    1.0607028 -4.356246e-05   0.42698838  0.015642895            0   0.41134548    1.5777954    2.0047838   0.51785179 
18950000    1.0424341 -8.7476929e-05   0.45234641  0.037530779            0   0.41481563    1.5506207    2.0029671   -0.9829121 
18955000   0.99880769 -5.2637571e-05   0.51951036   0.01719988            0   0.50231048    1.4857264    2.0052368   0.20854105 
18960000    1.0083489 0.00015464123   0.48267888  0.018420177            0   0.46425871     1.499919    1.9825979    7.2610185 
18965000    1.0403071 8.0125573e-06   0.45297408  0.013487216            0   0.43948686    1.5474568    2.0004309    2.2739261 
18970000    1.0206154 -0.00012301708   0.50096148 0.0066508162            0   0.49431066    1.5181654    2.0191269   -2.1798563 
18975000     1.008926 1.0593458e-05   0.51899602  0.012337812            0    0.5066582    1.5007774    2.0197734    2.3813634 
18980000    1.0492695 0.00015111208   0.46106192   0.02835665            0   0.43270527    1.5607883    2.0218503    7.1798091 
18985000    1.0214461 9.8103681e-05   0.51865296  0.018691953            0   0.49996101    1.5194011     2.038054    5.3866597 
18990000    1.0649289 -4.1430555e-05   0.45418641  0.032433541            0   0.42175287    1.5840817    2.0382682   0.62410522 
18995000     0.992088 -2.4938498e-05   0.55687191  0.057824317            0   0.49904759    1.4757309    2.0326028    1.1813687 
19000000    1.0646872 7.2149922e-05   0.46253235  0.022359204            0   0.44017315    1.5837223    2.0462546     4.508972 
19005000    1.1086754 -0.00012895818   0.41260829  0.017641203            0   0.39496709    1.6491547     2.061763   -2.3400097 
19010000    1.0042485 -0.00024484937   0.57847179   0.01320859            0    0.5652632    1.4938197    2.0722914   -6.2852336 
19015000    1.0571946 -2.0116268e-05   0.48662445  0.019462598            0   0.46716186     1.572577    2.0592015    1.3725662 
19020000    1.0603733 5.572534e-05   0.46101324  0.030704773            0   0.43030847    1.5773052    2.0383185    3.9404101 
19025000    1.0210929 1.656803e-05   0.50319947   0.03897902            0   0.46422045    1.5188757    2.0220752    2.5875973 
19030000    1.0186578 8.3032099e-05   0.53544778  0.011780414            0   0.52366737    1.5152534    2.0507012    4.8848635 
19035000    1.0565214 3.0062656e-05   0.46792569   0.01380982            0   0.45411587    1.5715756    2.0395013    3.0656399 
19040000    1.0927515 7.9596864e-05   0.40977599  0.017749068            0   0.39202693    1.6254679    2.0352439    4.7521502 
19045000   0.99262883 0.00019413517   0.57699017  0.015256414            0   0.56173376    1.4765354    2.0535256    8.6800059 
19050000    1.0958877 -0.00011233549   0.43259433 0.0075407209            0   0.42505361     1.630133    2.0627274   -1.7716574 
19055000    1.0551047 -0.00022238958   0.50290085  0.015429276            0   0.48747158    1.5694682    2.0723691   -5.5185286 
19060000    1.0607291 3.7967736e-05   0.48309135  0.012622998            0   0.47046835    1.5778345    2.0609259    3.3568913 
19065000    1.0458894 1.8435606e-05   0.51020489  0.032228842            0   0.47797604    1.5557605    2.0659654    2.6952341 
19070000    1.0440913 -5.8927809e-05   0.51344048  0.036701355            0   0.47673912    1.5530858    2.0665262  0.055123676 
19075000   0.96230288 2.1472423e-08   0.61140107  0.032610519            0   0.57879055    1.4314255    2.0428266    2.0435595 
19080000    1.0295924 -0.00010671424    0.5155047  0.021438972            0   0.49406573    1.5315187    2.0470234   -1.5954891 
19085000    1.0582084 -4.7740573e-05   0.45628449 0.0033290986            0   0.45295539     1.574085    2.0303695   0.40082459 
19090000    1.0418598 8.7539334e-05   0.46746857  0.007555165            0    0.4599134    1.5497665    2.0172351    5.0052443 
19095000    1.0072112 5.6727483e-05   0.51322285  0.020386429            0   0.49283642    1.4982266    2.0114494    3.9477475 
19100000   0.97526209 6.2264218e-06   0.55472847   0.01659958            0   0.53812889    1.4507024    2.0054308    2.2179594 
19105000    1.0785035 4.1335002e-05   0.40488176 0.0087218792            0   0.39615988     1.604274    2.0091557    3.4200571 
19110000    1.0653171 -2.9189462e-06   0.38846122 0.0038187058            0   0.38464251    1.5846591    1.9731204     1.873487 
19115000    1.0163846 -9.602936e-05   0.46490963 0.0016354355            0   0.46327419    1.5118722    1.9767818   -1.3010204 
19120000   0.96145184 -5.84743e-05   0.58049659  0.038275627            0   0.54222097    1.4301596    2.0106562  0.014733434 
19125000   0.97445968 2.9205873e-05     0.557967  0.027541344            0   0.53042565    1.4495088    2.0074758    3.0043696 
19130000    1.0457628 -1.6877625e-05   0.47134564  0.042039187            0   0.42930645    1.5555722    2.0269178    1.4508282 
19135000    1.0858877 -0.00013093525   0.42933569  0.040807112            0   0.38852858     1.615258    2.0445937   -2.4246627 
19140000    1.0124415 -5.3370887e-05   0.53765359  0.036733133            0   0.50092046    1.5060067    2.0436603   0.22193404 
19145000   0.95464144 -4.8943009e-05   0.59616723  0.057038141            0   0.53912909    1.4200291    2.0161964   0.34560833 
19150000    1.0656658 2.3487396e-05   0.43099414  0.024452409            0   0.40654173    1.5851778     2.016172    2.8178751 
19155000    1.0933204 0.00011789737   0.36808942  0.013854146            0   0.35423528    1.6263141    1.9944035    6.0186337 
19160000   0.96140326 -2.1682453e-07   0.56020291  0.025967164            0   0.53423575    1.4300873    1.9902903    1.9828893 
19165000   0.94263712 5.2841004e-05   0.58285158  0.039439851            0   0.54341173    1.4021727    1.9850243    3.7886639 
19170000   0.97435188 -1.9745249e-05   0.54087535  0.020451795            0   0.52042355    1.4493484    1.9902238    1.3162526 
19175000   0.97052281 -3.4406533e-05   0.51711695  0.022210475            0   0.49490647    1.4436527    1.9607696   0.78635996 
19180000   0.99882241 -7.5173752e-05   0.48527709 0.0072448073            0   0.47803228    1.4857483    1.9710254  -0.59490529 
19185000   0.99209642 8.5535318e-05   0.48872285 0.0049506447            0   0.48377221    1.4757434    1.9644663    4.8840718 
19190000    1.0226777 -2.0854206e-05   0.46316654   0.01137922            0   0.45178732    1.5212331    1.9843997    1.2725761 
19195000   0.98503196 -0.00010869581   0.51070177  0.038062922            0   0.47263885     1.465235    1.9759368   -1.7342134 
19200000    1.0277631 6.7514071e-05   0.43130779  0.015658278            0   0.41564951    1.5287977    1.9601055    4.2645857 
19205000   0.98959467 -5.7854229e-05   0.47316039  0.011017681            0   0.46214271    1.4720221    1.9451825 -0.029575222 
19210000   0.95938148 1.330366e-05   0.51897798   0.02501084            0   0.49396714    1.4270799    1.9460579    2.4001562 
19215000   0.90232084 -0.00010200619   0.60992631   0.01446424            0   0.59546207    1.3422023    1.9521286   -1.5296826 
19220000    0.9951093 -1.8347675e-05   0.46694809  0.020022986            0   0.44692511    1.4802251    1.9471732    1.3209059 
19225000   0.99139386 0.00014908122   0.43257188  0.043855133            0   0.38871674    1.4746984    1.9072702    6.9959094 
19230000   0.97585645 1.2468158e-05   0.44522859  0.021441121            0   0.42378747    1.4515865    1.8968151    2.3223949 
19235000   0.93466699 -9.6430086e-05   0.52869931  0.025668986            0   0.50303032    1.3903172    1.9190165   -1.3724638 
19240000   0.94266676 8.9669932e-05   0.52949811  0.056450232            0   0.47304788    1.4022168    1.9317149    4.9924486 
19245000   0.99213433 1.8581273e-05   0.46247362  0.032841554            0   0.42963207    1.4757998    1.9382734    2.5725142 
19250000   0.92802787 -5.0760809e-05    0.5511868  0.037257907            0   0.51392889    1.3804414    1.9316282   0.19899265 
19255000     1.014637 0.00010468268   0.42884945  0.021375993            0   0.40747346    1.5092725     1.938122    5.5112908 
19260000    0.9696642 0.00022441182   0.48187824  0.018545614            0   0.46333263    1.4423755    1.9242537    9.5841771 
19265000   0.94097754 2.7757007e-06   0.51860479 0.0074376907            0    0.5111671    1.3997041    1.9183089    2.0130528 
19270000   0.99943077 -4.2844953e-05   0.44847557  0.012022419            0   0.43645315    1.4866533    1.9351288   0.47268777 
19275000   0.96451355 -4.443297e-05   0.48483437  0.037789098            0   0.44704527    1.4347139    1.9195483   0.40290288 
19280000   0.96920038 1.1423859e-05   0.49658433  0.009954151            0   0.48663018    1.4416856    1.9382699    2.3282043 
19285000   0.98790596 6.5403611e-05    0.4811039  0.024085755            0   0.45701815    1.4695101     1.950614    4.1830573 
19290000   0.99049694 -0.00013758361   0.45585782  0.014418446            0   0.44143938    1.4733642     1.929222   -2.7669653 
19295000   0.99951656 1.4211353e-05   0.43730182 0.0060399144            0    0.4312619    1.4867809    1.9240827    2.4091635 
19300000   0.97047446 7.0405858e-05   0.47523491  0.016066104            0   0.45916881    1.4435808    1.9188157    4.3220023 
19305000   0.94947443 -4.207128e-05   0.51404541  0.020183803            0   0.49386161    1.4123432    1.9263886   0.49035562 
19310000   0.97828015 1.5219901e-05   0.47820591  0.014789632            0   0.46341627    1.4551917    1.9333976    2.4529036 
19315000   0.99581521 -2.0275783e-05   0.46306413 0.0055562576            0   0.45750788    1.4812751    1.9443393    1.2522592 
19320000     1.013759 8.2351823e-05   0.44945348 0.0019922522            0   0.44746123    1.5079665      1.95742    4.7683622 
19325000    1.0009151 3.1614262e-06   0.47120808   0.01838564            0   0.45282244    1.4888612    1.9600693    2.0679793 
19330000    1.0576964 -7.4840091e-05   0.39131621  0.026119488            0   0.36519672    1.5733233    1.9646396  -0.58990221 
19335000    1.0255097 -2.4446043e-05   0.44836136  0.021833367            0   0.42652799    1.5254457     1.973807    1.1393821 
19340000    0.9881862 -0.00019114869   0.53476829  0.017765409            0   0.51700288     1.469927    2.0046953   -4.5198468 
19345000    1.0431086 7.1482117e-05   0.44398508  0.013114154            0   0.43087093     1.551624    1.9956091     4.435532 
19350000    1.0512399 0.0001967102   0.45162584  0.017440702            0   0.43418514    1.5637193    2.0153451    8.7297201 
19355000    1.0199322 -7.6640728e-05   0.49465366  0.023753021            0   0.47090064    1.5171491    2.0118027  -0.60420076 
19360000    1.0133098 -2.7928548e-05   0.51208879  0.017865719            0   0.49422307    1.5072983    2.0193871    1.0660926 
19365000     1.002069 -3.9470051e-06   0.51200201  0.016783328            0   0.49521868    1.4905776    2.0025796    1.8678551 
19370000    1.0065913 -0.000155827   0.51056582  0.026924024            0    0.4836418    1.4973046    2.0078704   -3.3110244 
19375000    1.0416861 -5.6750586e-05   0.45195842  0.021899165            0   0.43005926    1.5495081    2.0014665  0.064379804 
19380000   0.99380035 0.00010111561    0.5371995  0.013387552            0   0.52381195     1.478278    2.0154775    5.4668905 
19385000     1.059469 9.8998988e-05   0.43279434  0.032289469            0   0.40050487    1.5759601    2.0087545    5.3879199 
19390000   0.97797093 0.00013540654   0.54028833  0.079087642            0   0.46120069    1.4547318    1.9950201    6.6168968 
19395000   0.96173158 1.5810575e-07   0.55915269  0.034040219            0   0.52511247    1.4305757    1.9897284    1.9951251 
19400000   0.99276468 -0.00021598236    0.5038849  0.012961604            0   0.49092329    1.4767375    1.9806224   -5.3915755 
19405000    1.0112935 5.1062229e-05   0.47723745 0.0065764893            0   0.47066096     1.504299    1.9815365    3.7244606 
19410000    1.0560314 9.9361289e-06    0.4038216  0.009221543            0   0.39460006    1.5708466    1.9746683    2.3138215 
19415000    1.0244192 3.8571649e-05   0.44556916 0.0099030517            0   0.43566611    1.5238235    1.9693927    3.2859716 
19420000   0.97800406 3.6543704e-05   0.52072075  0.020735408            0   0.49998534     1.454781    1.9755018    3.2228602 
19425000   0.94863833 -4.6568692e-05   0.56342543  0.028296074            0   0.53512936    1.4110995    1.9745249   0.38498027 
19430000    1.0051645 -4.074199e-05   0.46671399  0.011435413            0   0.45527858    1.4951823    1.9618963   0.57123633 
19435000    1.0332463 0.00012989774   0.44705196 0.0039551653            0   0.44309679    1.5369538    1.9840058    6.4178486 
19440000   0.95522733 9.9898653e-05   0.54908332  0.026442259            0   0.52264106    1.4209006     1.969984     5.379858 
19445000    1.0215154 0.00011341445   0.48386959  0.032030052            0   0.45183954    1.5195041    2.0033737    5.8745869 
19450000    1.0253575 -7.4538582e-06   0.47646425   0.03692072            0   0.43954353    1.5252192    2.0016835    1.7472584 
19455000    1.0540572 0.0001463554   0.43140559  0.017986448            0   0.41341914      1.56791    1.9993156    6.9949133 
19460000    1.0510289 0.00024730792   0.43919122 0.0092931441            0   0.42989808    1.5634055    2.0025967     10.44404 
19465000    1.0224638 -4.9064787e-05    0.5049229 0.0032001446            0   0.50172275    1.5209149    2.0258378   0.35109308 
19470000   0.98694258 -3.756912e-05    0.5540499   0.02194499            0   0.53210491    1.4680771     2.022127   0.73976771 
19475000    1.0050608 -0.00016689302   0.50455532    0.0463634            0   0.45819191    1.4950279    1.9995832    -3.697032 
19480000    1.0330767 -0.0001233105   0.46488329  0.026373526            0   0.43850977    1.5367016    2.0015849   -2.2074136 
19485000    1.0043371 0.00010892226   0.50205521  0.014251573            0   0.48780364    1.4939514    1.9960067    5.7138866 
19490000     1.041424 -9.7560293e-05   0.44339098  0.017898555            0   0.42549243    1.5491182    1.9925092   -1.3375488 
19495000   0.98334725 -0.0001700688   0.52208796  0.043183476            0   0.47890448     1.462729     1.984817    -3.820198 
19500000   0.99314497 3.5899721e-05   0.51690556  0.051896896            0   0.46500866    1.4773031    1.9942087    3.2195859 
19505000    1.0274734 -6.5060849e-05   0.47139136  0.038360735            0   0.43303062    1.5283667     1.999758  -0.22098564 
19510000   0.99524469 -4.4196525e-05    0.4766714  0.021972746            0   0.45469865    1.4804265    1.9570979   0.44852314 
19515000    1.0432544 0.00013565813   0.42917541 0.0072613961            0   0.42191401    1.5518409    1.9810163    6.6114804 
19520000    1.0407705 7.4468518e-05     0.412898  0.025060359            0   0.38783764    1.5481461    1.9610441    4.5029029 
19525000   0.99643434 -1.8176769e-05   0.47725524  0.014798548            0   0.46245669    1.4821961    1.9594513    1.3390176 
19530000   0.98860864 -6.5661568e-06   0.48226923  0.017555597            0   0.46471363    1.4705553    1.9528246    1.7286998 
19535000   0.94782428 6.5476541e-05   0.55149387  0.065041637            0   0.48645224    1.4098886    1.9613825    4.1963151 
19540000    1.0036937 -3.6640642e-05   0.50635902   0.05172232            0    0.4546367    1.4929944    1.9993535    0.7486862 
19545000    1.0142285 7.3898035e-06   0.47054892   0.04374526            0   0.42680366    1.5086648    1.9792138    2.2314524 
19550000    1.0312318 0.00029363343   0.44695643  0.031786761            0   0.41516967    1.5339574    1.9809138    12.003602 
19555000   0.95949446 9.5210611e-05   0.54930453 0.0063129569            0   0.54299157     1.427248    1.9765525    5.2264081 
19560000    1.0740592 -3.4891499e-05   0.38234376 0.00061695024            0   0.38172681     1.597663    1.9800068   0.78904365 
19565000    0.9690733 -1.4889906e-05   0.52626542  0.011547011            0   0.51471841    1.4414965     1.967762    1.4595198 
19570000   0.97741536 -2.6145432e-05   0.51846879  0.018380245            0   0.50008854    1.4539053    1.9723741    1.0799434 
19575000    1.0355699 9.6049024e-05   0.46151207  0.010995449            0   0.45051662    1.5404103    2.0019223    5.2803957 
19580000    1.0050251 -6.4230463e-05   0.50096318  0.012214144            0   0.48874904    1.4949749     1.995938  -0.19646176 
19585000     0.999425 -6.0820684e-05   0.50956432  0.024068373            0   0.48549594    1.4866447     1.996209 -0.079803684 
19590000    1.0478813 -0.00010444596   0.45466318  0.023815388            0   0.43084779    1.5587235    2.0133867   -1.5517022 
19595000    1.0494289 -0.00013339947   0.45126994  0.027725116            0   0.42354482    1.5610255    2.0122955   -2.5410732 
19600000   0.99557363 5.1112428e-05   0.52583892  0.028581403            0   0.49725752    1.4809158    2.0067547    3.7513922 
19605000    1.0422376 0.00010156836   0.46708896  0.014455385            0   0.45263358    1.5503285    2.0174174    5.4842842 
19610000    1.0356236 -6.5584235e-05   0.48006251  0.022983792            0   0.45707872    1.5404901    2.0205526  -0.21805592 
19615000   0.95606452 -8.9631698e-05   0.58573789  0.037710804            0   0.54802709     1.422146    2.0078839   -1.0515448 
19620000    1.0350461 4.4643739e-05   0.44956613  0.046659483            0   0.40290665     1.539631    1.9891971    3.5130368 
19625000   0.94198728 -5.0368426e-06   0.58214271  0.026749794            0   0.55539291    1.4012061    1.9833488    1.8114246 
19630000   0.99845543 4.8061207e-05   0.48221183  0.051677461            0   0.43053437    1.4852025    1.9674143    3.6079035 
19635000    0.8977852 3.4218373e-05   0.62846983   0.02773012            0   0.60073971    1.3354555    1.9639253    3.1319124 
19640000    1.0060326 0.00016235909   0.45528389  0.020027341            0   0.43525655    1.4964735    1.9517574    7.4936145 
19645000   0.93505277 0.00018908678   0.55583161  0.011142752            0   0.54468886     1.390891    1.9467226    8.4008848 
19650000    1.0074565 -4.0586805e-07   0.42339903 0.0056947775            0   0.41770425    1.4985916    1.9219906     1.908137 
19655000   0.94821914 -8.8233798e-05   0.50738497  0.026162104            0   0.48122287     1.410476    1.9178609   -1.0938527 
19660000   0.96849867 -0.00013062772   0.48140802  0.038043699            0   0.44336432    1.4406418    1.9220498   -2.5367099 
19665000   0.92679212 1.3597876e-05   0.54815749  0.021209424            0   0.52694807    1.3786033    1.9267608    2.3909016 
19670000    0.9556766 9.7582614e-05   0.51614415  0.028312731            0   0.48783142    1.4215689    1.9377131     5.268533 
19675000   0.98771756 4.0236175e-05   0.47088431  0.059630598            0   0.41125372    1.4692299    1.9401142     3.313509 
19680000   0.97343195 -6.4469815e-05   0.49420813  0.083285479            0   0.41092265      1.44798    1.9421882  -0.25838153 
19685000   0.92996077 -5.6067991e-05   0.55236608  0.031500728            0   0.52086535    1.3833166    1.9356827  0.021895314 
19690000    1.0189746 -2.1852763e-05   0.41745154  0.021344074            0   0.39610747    1.5157247    1.9331762    1.1872686 
19695000   0.93139331 0.00021668864   0.55126862  0.025297432            0   0.52597119    1.3854475    1.9367162    9.3330218 
19700000   0.97308896 0.00019010805    0.4621058 0.0078217194            0   0.45428408    1.4474698    1.9095756    8.3985971 
19705000   0.97490929 2.0084726e-05   0.45117659  0.018732325            0   0.43244426    1.4501776    1.9013542    2.5869128 
19710000   0.95181953 -4.3529011e-05   0.48625992   0.01808765            0   0.46817227    1.4158315    1.9020915   0.41630122 
19715000   0.95945219 -0.00015062467   0.46506796   0.01293475            0   0.45213321    1.4271851    1.8922531    -3.249069 
19720000   0.93366338 5.984279e-05   0.51755467  0.035035044            0   0.48251963    1.3888243     1.906379    3.9490128 
19725000   0.96942436 0.00013720725   0.50194052  0.044049761            0   0.45789076    1.4420187    1.9439593    6.6273001 
19730000   0.97067401 1.1612094e-05   0.46034889   0.01281782            0   0.44753107    1.4438776    1.9042265     2.300586 
19735000     1.024816 7.3233848e-05   0.38294258 0.0043513162            0   0.37859126    1.5244137    1.9073563    4.4070717 
19740000   0.95129455 8.325527e-05   0.49735427 0.0095082412            0   0.48784603    1.4150506    1.9124049    4.7541848 
19745000   0.93768576 3.3661742e-05   0.50286178  0.028349692            0   0.47451209    1.3948076    1.8976693    3.0466568 
19750000   0.97599504 -2.8169357e-06    0.4350131  0.028265905            0   0.40674719    1.4517926    1.8868057    1.7906543 
19755000   0.94260931 -7.9938407e-05   0.49071127  0.033669109            0   0.45704216    1.4021314    1.8928426  -0.83572167 
19760000   0.93116968 -0.0001814726     0.514876  0.037627251            0   0.47724875    1.3851149    1.8999909   -4.2942738 
19765000   0.96146192 -0.00015851975   0.47904373    0.0222457            0   0.45679803    1.4301746    1.9092183   -3.5015893 
19770000   0.91455419 -5.6971879e-05   0.52846577 0.0029214964            0   0.52554427    1.3603994    1.8888651 -0.055774988 
19775000    0.9813305 9.4867841e-07   0.45107336 0.0046918342            0   0.44638152    1.4597291    1.9108025     1.943184 
19780000   0.97031034 2.1194815e-05   0.43181439  0.014948604            0   0.41686578    1.4433366     1.875151    2.5986007 
19785000   0.98757696 0.00014531752   0.39919991  0.020870982            0   0.37832893    1.4690207    1.8682206     6.828392 
19790000   0.95680192 0.00014965411   0.46422977 0.0096112876            0   0.45461848    1.4232429    1.8874726    6.9956661 
19795000    0.9763191 8.0845323e-05    0.4327821  0.012267231            0   0.42051487    1.4522747    1.8850568    4.6445771 
19800000   0.97221698 6.1726481e-05   0.45027198  0.022470933            0   0.42780104    1.4461728    1.8964447    4.0033753 
19805000   0.95240237 3.7732768e-05   0.46501591  0.015835169            0   0.44918074    1.4166985    1.8817144    3.1696596 
19810000   0.93497128 5.7419095e-05   0.49844414 0.0029363302            0   0.49550781    1.3907698    1.8892139     3.849119 
19815000   0.89822256 4.098117e-05   0.54836061 0.00070444956            0   0.54765616    1.3361061    1.8844667    3.2832906 
19820000   0.97571465 -0.00010086496    0.4479167  0.007097084            0   0.44081962    1.4513755    1.8992922   -1.5435651 
19825000    1.0335238 -0.0001356357   0.35404293  0.013477656            0   0.34056527    1.5373667    1.8914096   -2.7382891 
19830000   0.94251557 9.7687522e-06   0.47758095  0.012408157            0   0.46517279    1.4019919    1.8795729    2.2130129 
19835000   0.92952545 4.4278311e-05    0.4785639  0.014570047            0   0.46399385    1.3826691     1.861233    3.3725993 
19840000   0.91150205 3.1991613e-05   0.51070188  0.020989299            0   0.48971258    1.3558593    1.8665612    2.9585416 
19845000   0.96556825 8.5268488e-05   0.43801697  0.016453501            0   0.42156346    1.4362828    1.8742997    4.7847975 
19850000   0.94079011 7.7970196e-05   0.49091758  0.019749246            0   0.47116834    1.3994253    1.8903429    4.5517256 
19855000   0.98063065 6.7194832e-05   0.43714958  0.013587943            0   0.42356164    1.4586881    1.8958377    4.1894213 
19860000   0.96613094 6.6900222e-05   0.46719745  0.028499455            0   0.43869799    1.4371198    1.9043172    4.1878448 
19865000   0.88217839 -0.00012720313    0.5821175  0.040006693            0   0.54211081    1.3122404    1.8943579    -2.447509 
19870000   0.90119244 -0.00017593237   0.54506339  0.023000911            0   0.52206248    1.3405238    1.8855871    -4.119571 
19875000   0.91152736 -9.4552131e-05   0.52503786   0.01622581            0   0.50881205     1.355897    1.8809348   -1.3464446 
19880000   0.85524144 -2.3792128e-05   0.59379724  0.038187026            0   0.55561021    1.2721716    1.8659689    1.0538642 
19885000   0.88193972 -4.0963382e-05    0.5687857  0.038972139            0   0.52981357    1.3118853     1.880671   0.48245426 
19890000   0.91454001 -0.00014885318   0.52154286  0.022823088            0   0.49871977    1.3603783    1.8819211    -3.198934 
19895000    0.8974049 -8.9467308e-05   0.55258669  0.025973785            0    0.5266129    1.3348898    1.8874765    -1.166341 
19900000   0.95220451 7.1206727e-06   0.50125735  0.028281731            0   0.47297562    1.4164042    1.9176616    2.1607139 
19905000   0.94494926 8.0729589e-05   0.52286674  0.022563897            0   0.50030284     1.405612    1.9284788    4.6840487 
19910000   0.92571194 9.7200783e-05   0.54745465  0.017401576            0   0.53005307    1.3769965    1.9244512    5.2422379 
19915000     0.935072 -6.5833977e-05   0.54612292  0.036495317            0   0.50962761    1.3909196    1.9370425  -0.31009057 
19920000   0.98144277 -0.00012112171    0.4455773  0.010247332            0   0.43532997    1.4598961    1.9054734   -2.2288142 
19925000   0.87251915 1.684367e-05   0.61333912  0.014508314            0    0.5988308    1.2978722    1.9112114     2.486142 
19930000   0.96306869 -1.8449926e-05   0.49462932  0.017892944            0   0.47673638    1.4325647     1.927194    1.2974365 
19935000   0.93400788 -0.00021179813   0.52467947  0.010792494            0   0.51388697    1.3893367    1.9140162     -5.31536 
19940000   0.89070625 -4.248593e-05   0.58295224  0.011337055            0   0.57161518    1.3249255    1.9078778   0.45769136 
19945000   0.93993779 0.00016978062   0.49670272 0.0087052181            0    0.4879975    1.3981575    1.8948602    7.6900386 
19950000   0.90499902 4.6755625e-05   0.52937947 0.0045230952            0   0.52485637     1.346186    1.8755655    3.4714908 
19955000   0.96683441 -6.3987311e-05   0.43044337 0.0016220517            0   0.42882132    1.4381662    1.8686095  -0.31549067 
19960000   0.96198576 5.8729869e-05   0.41400842 0.0015679818            0   0.41244043    1.4309538    1.8449622    3.8496084 
19965000   0.91517859 3.4491342e-05   0.49899848  0.024158657            0   0.47483982    1.3613281    1.8603266    3.0376311 
19970000   0.95501775 8.3697631e-05   0.46223891  0.031354329            0   0.43088458    1.4205889    1.8828278     4.739707 
19975000   0.95745787 2.364445e-05   0.48355563  0.014314188            0   0.46924144    1.4242186    1.9077742    2.7148381 
19980000   0.90553205 -1.7147366e-05   0.57101763  0.027237185            0   0.54378044    1.3469789    1.9179966    1.3326998 
19985000   0.94538728 0.00011377639   0.48345255  0.026539909            0   0.45691264    1.4062636    1.8897161    5.7732835 
19990000   0.90791241 0.00011853861   0.55317444 0.0022976622            0   0.55087678    1.3505197    1.9036941    5.9498119 
19995000   0.92532045 0.00012365575   0.51168534 0.00039768515            0   0.51128766    1.3764142    1.8880995    6.1088823 
20000000   0.95744474 3.3617285e-05   0.45179494  0.022331267            0   0.42946368    1.4241991     1.875994     3.023464 
Loop time of 231.098 on 1 procs for 20000000 steps with 120 atoms

Performance: 74773.321 tau/day, 86543.196 timesteps/s
99.7% CPU use with 1 MPI tasks x no OpenMP threads

MPI task timing breakdown:
Section |  min time  |  avg time  |  max time  |%varavg| %total
---------------------------------------------------------------
Pair    | 11.841     | 11.841     | 11.841     |   0.0 |  5.12
Bond    | 34.883     | 34.883     | 34.883     |   0.0 | 15.09
Neigh   | 20.358     | 20.358     | 20.358     |   0.0 |  8.81
Comm    | 50.912     | 50.912     | 50.912     |   0.0 | 22.03
Output  | 0.66369    | 0.66369    | 0.66369    |   0.0 |  0.29
Modify  | 103.93     | 103.93     | 103.93     |   0.0 | 44.97
Other   |            | 8.512      |            |       |  3.68

Nlocal:        120.000 ave         120 max         120 min
Histogram: 1 0 0 0 0 0 0 0 0 0
Nghost:        0.00000 ave           0 max           0 min
Histogram: 1 0 0 0 0 0 0 0 0 0
Neighs:        46.0000 ave          46 max          46 min
Histogram: 1 0 0 0 0 0 0 0 0 0

Total # of neighbors = 46
Ave neighs/atom = 0.38333333
Ave special neighs/atom = 5.9000000
Neighbor list builds = 4120
Dangerous builds = 0
write_restart restart.equil
System init for write_restart ...
WARNING: Communication cutoff 1.4200000000000002 is shorter than a bond length based estimate of 1.8. This may lead to errors. (../comm.cpp:667)
#--------------End of Input file ------------------
Total wall time: 0:03:51
