LAMMPS (29 Oct 2020)
###################### polyelectrolyte complexation ######################
clear

#Initialization
#------------------------------------
units				lj
dimension			3
atom_style			full
boundary			p p p

#Atom Definition
#-------------------------------------
read_restart			restart.equil
Reading restart file ...
  restart file = 29 Oct 2020, LAMMPS = 29 Oct 2020
  restoring atom style full from restart
  orthogonal box = (-80.000000 -80.000000 -80.000000) to (80.000000 80.000000 80.000000)
  1 by 1 by 1 MPI processor grid
  restoring pair style lj/cut from restart
  restoring bond style harmonic from restart
  60 atoms
  59 bonds
Finding 1-2 1-3 1-4 neighbors ...
  special bond factors lj:    0.0      1.0      1.0     
  special bond factors coul:  0.0      0.0      0.0     
     2 = max # of 1-2 neighbors
     2 = max # of 1-3 neighbors
     4 = max # of 1-4 neighbors
     6 = max # of special neighbors
  special bonds CPU = 0.000 seconds
  read_restart CPU = 0.003 seconds

#Force definition
#----------------------------------------------
#Bond definition
bond_style			harmonic
bond_coeff			1 5000 1
#Pair definition
special_bonds	lj 0 1 1
dielectric		80
pair_style		 lj/cut 1.12
pair_modify 		 shift yes
pair_coeff	1 1 1 1 1.12

#Timestep etc
#--------------------------------------------
timestep		0.001
run_style		verlet
velocity		all	create	1	2

#Fix
#---------------------------------------
group polymers type 1
60 atoms in group polymers
fix 1 all nve
fix 2 all langevin 1	1	1	2

#Dump
#------------------------------------------------
compute  1 all gyration
variable  myRg2 equal c_1
variable  i equal step
fix  mythermofile all print 5000 "$i ${myRg2}" file radius_of_gyration.dat screen no

thermo_style		 custom step temp press pe evdwl ecoul ebond ke etotal enthalpy
thermo 	5000
dump	3 all custom 5000 dump.lammpstrj id mol type xu yu zu
run		2000000
Neighbor list info ...
  update every 1 steps, delay 10 steps, check yes
  max neighbors/atom: 2000, page size: 100000
  master list distance cutoff = 1.42
  ghost atom cutoff = 1.42
  binsize = 0.71, bins = 226 226 226
  1 neighbor lists, perpetual/occasional/extra = 1 0 0
  (1) pair lj/cut, perpetual
      attributes: half, newton on
      pair build: half/bin/newton
      stencil: half/bin/3d/newton
      bin: standard
WARNING: Communication cutoff 1.4200000000000002 is shorter than a bond length based estimate of 1.8. This may lead to errors. (../comm.cpp:667)
Per MPI rank memory allocation (min/avg/max) = 54.71 | 54.71 | 54.71 Mbytes
Step Temp Press PotEng E_vdwl E_coul E_bond KinEng TotEng Enthalpy 
 2000000            1 -0.00012130765   0.43871753 0.0060657727            0   0.43265176        1.475    1.9137175   -6.3675516 
 2005000    1.0743843 -8.1319652e-05   0.48734617 0.00061310803            0   0.48673306    1.5847168     2.072063   -3.4793586 
 2010000   0.96253081 -6.8089677e-05   0.50881565  0.042514249            0    0.4663014    1.4197329    1.9285486   -2.7197067 
 2015000   0.97851683 -9.5205583e-05   0.47146659 5.4526853e-05            0   0.47141206    1.4433123    1.9147789   -4.5845889 
 2020000   0.92629701 -7.7848896e-05   0.45538226 4.5839699e-05            0   0.45533642    1.3662881    1.8216703   -3.4928143 
 2025000   0.80687284 -7.8890653e-05   0.44024516  0.014239132            0   0.42600603    1.1901374    1.6303826   -3.7552193 
 2030000   0.84966302 6.8899233e-05   0.45287984 0.00076724887            0   0.45211259     1.253253    1.7061328    6.4096538 
 2035000    1.0356913 -3.0936871e-05   0.60730605  0.025434456            0   0.58187159    1.5276446    2.1349507  0.022993629 
 2040000    1.0640257 -6.4451002e-06   0.47075617 0.0082134991            0   0.46254268     1.569438    2.0401942    1.6002086 
 2045000    1.0123531 0.00015882946   0.54527619  0.013315937            0   0.53196026    1.4932208     2.038497    12.881255 
 2050000   0.84835623 1.2258536e-05    0.4630097 0.0062310592            0   0.45677864    1.2513254    1.7143351    2.5511845 
 2055000   0.96129157 -2.069793e-05   0.69588533  0.036196784            0   0.65968855    1.4179051    2.1137904   0.70081173 
 2060000   0.95069242 -3.8672971e-05   0.53398217  0.043321869            0    0.4906603    1.4022713    1.9362535  -0.70382137 
 2065000    1.2949229 -3.1841531e-05   0.51011313  0.033491528            0    0.4766216    1.9100112    2.4201243   0.24640914 
 2070000    1.0857217 -2.7584525e-05   0.55811929  0.000461314            0   0.55765798    1.6014396    2.1595588   0.27645528 
 2075000    1.1272597 3.0047911e-05   0.41574974 0.0068140647            0   0.40893568     1.662708    2.0784578    4.1297285 
 2080000     1.090332 -5.4898139e-05     0.481795 0.0079585483            0   0.47383645    1.6082397    2.0900347   -1.6576783 
 2085000    1.2529187 5.2906196e-05   0.59522136  0.057484166            0    0.5377372     1.848055    2.4432764     6.055006 
 2090000    1.1638291 -7.0854598e-05   0.70601082  0.011372699            0   0.69463812     1.716648    2.4226588   -2.4143484 
 2095000    1.0761349 -4.7020884e-05   0.43987066  0.011298433            0   0.42857223    1.5872989    2.0271696   -1.1827894 
 2100000   0.78802949 3.0678201e-05   0.56313347 0.0074197131            0   0.55571376    1.1623435     1.725477    3.8197755 
 2105000   0.95201719 1.7932388e-05   0.57203736  0.032241719            0   0.53979564    1.4042254    1.9762627    3.2004471 
 2110000    1.0439398 0.00010921909   0.45954731 0.0039470189            0   0.45560029    1.5398113    1.9993586     9.455382 
 2115000     1.001179 5.6059901e-05   0.63574767  0.050929964            0   0.58481771     1.476739    2.1124867    5.9395092 
 2120000     1.099955 -1.3864957e-05   0.42988328 0.0022767413            0   0.42760654    1.6224337     2.052317    1.1058025 
 2125000    1.0191137 3.6038145e-05   0.57926438  0.025195822            0   0.55406856    1.5031928    2.0824572    4.5426612 
 2130000    1.2115096 -3.2479713e-05   0.41040698  0.024161662            0   0.38624532    1.7869767    2.1973837 -0.019898067 
 2135000    0.9336581 5.5382343e-05   0.54164021  0.045137949            0   0.49650226    1.3771457    1.9187859    5.6995538 
 2140000    1.1727745 -0.00010296208    0.5591634 0.0027471656            0   0.55641624    1.7298424    2.2890058   -4.7398725 
 2145000   0.95523227 -3.6385361e-05     0.538708  0.024855254            0   0.51385274    1.4089676    1.9476756  -0.53623176 
 2150000    1.0102313 -6.8361365e-05   0.43767311  0.011602874            0   0.42607023    1.4900912    1.9277643   -2.7390382 
 2155000   0.97816812 1.2492023e-05   0.37283245 0.0074997937            0   0.36533265     1.442798    1.8156304    2.6684192 
 2160000     1.001979 -1.1834856e-05   0.44233016  0.021684356            0   0.42064581     1.477919    1.9202492     1.112323 
 2165000    1.0929123 5.7210951e-07     0.753989            0            0     0.753989    1.6120457    2.3660347    2.4050907 
 2170000    1.0445236 -6.2471669e-06   0.39265451  0.022928677            0   0.36972583    1.5406722    1.9333268    1.5068535 
 2175000   0.98718151 -7.8622452e-05   0.53891203 6.8932334e-05            0   0.53884309    1.4560927    1.9950047    -3.372288 
 2180000   0.96270841 -3.6527838e-05   0.46048645 0.0026157839            0   0.45787066    1.4199949    1.8804814  -0.61315238 
 2185000    0.9842617 -3.2673555e-05   0.67585668 0.0076448461            0   0.66821184     1.451786    2.1276427  -0.10287196 
 2190000   0.85420699 -9.2820286e-05   0.61106021  0.053628252            0   0.55743196    1.2599553    1.8710155    -4.465516 
 2195000    1.0635403 4.1787076e-05   0.51303552  0.005959652            0   0.50707587    1.5687219    2.0817575    4.9344218 
 2200000   0.93873955 -1.0204278e-05   0.56825179 0.0064041542            0   0.56184764    1.3846408    1.9528926    1.2562806 
 2205000    1.1621043 4.3095633e-06    0.4413102   0.02171148            0   0.41959872    1.7141038     2.155414    2.4496135 
 2210000   0.98562811  0.000117184   0.58886303  0.020163251            0   0.56869978    1.4538015    2.0426645    10.042426 
 2215000    1.0681263 -3.0618491e-07   0.58575014  0.023167745            0    0.5625824    1.5754863    2.1612364    2.1403342 
 2220000    1.0976218 7.1228366e-05   0.46236326  0.023998393            0   0.43836487    1.6189922    2.0813554    6.9438785 
 2225000    1.0866437 2.8619846e-05   0.50058637  0.021341839            0   0.47924453    1.6027995    2.1033858    4.0571673 
 2230000    1.1842809 1.8279538e-05   0.44801495   0.02720162            0   0.42081333    1.7468143    2.1948293    3.4427124 
 2235000    1.0843324 4.9248486e-05   0.52653581 0.00083884768            0   0.52569696    1.5993904    2.1259262    5.4879561 
 2240000   0.87186977 -9.2325282e-05   0.56462766 0.0062374199            0   0.55839024    1.2860079    1.8506356   -4.4521037 
 2245000    1.0558444 -7.4218067e-05    0.4678955  0.056285744            0   0.41160976    1.5573705     2.025266    -3.041354 
 2250000    1.1050281 3.4228046e-05    0.6108883  0.024663172            0   0.58622512    1.6299164    2.2408047    4.5774393 
 2255000   0.99627188 2.1770264e-05   0.58561868  0.050256294            0   0.53536238     1.469501    2.0551197    3.5413031 
 2260000   0.97231732 4.847266e-05   0.47504762  0.018352354            0   0.45669526     1.434168    1.9092157    5.2182826 
 2265000    1.1184339 -9.4092632e-05   0.53771561 0.00043839778            0   0.53727721      1.64969    2.1874056   -4.2359848 
 2270000     1.041777 0.00010610614   0.58732901    0.0347409            0   0.55258811     1.536621      2.12395    9.3674628 
 2275000    1.0458758 -5.5134019e-05   0.56274974  0.014970077            0   0.54777967    1.5426668    2.1054165   -1.6583991 
 2280000   0.99253853 -1.8031083e-05   0.55668105 0.00051336182            0   0.55616769    1.4639943    2.0206754   0.78975348 
 2285000    1.0571659 1.5714301e-05   0.55828521  0.067723815            0    0.4905614    1.5593196    2.1176048    3.1903678 
 2290000     1.063293 -8.6262298e-05   0.46684169            0            0   0.46684169    1.5683572    2.0351989   -3.8536407 
 2295000    1.0320648 1.0414453e-05   0.47305742  0.066901503            0   0.40615592    1.5222956    1.9953531     2.706313 
 2300000   0.85007123 -8.391465e-05   0.47556176 0.0037942256            0   0.47176754    1.2538551    1.7294168   -3.9991566 
 2305000   0.94802222 -6.7487422e-05   0.47431839 0.0017561133            0   0.47256228    1.3983328    1.8726512   -2.7344902 
 2310000   0.97349265 -2.3357617e-05   0.54022575  0.031469096            0   0.50875665    1.4359017    1.9761274   0.38158075 
 2315000    1.1067716 -0.00011137015   0.57937773  0.027687458            0   0.55169027    1.6324881    2.2118658   -5.3910032 
 2320000    1.2980578 5.8170755e-05   0.51751923  0.012477558            0   0.50504167    1.9146353    2.4321545     6.403278 
 2325000     1.053923 1.4524005e-05   0.46459214  0.013692944            0   0.45089919    1.5545364    2.0191285    3.0106339 
 2330000     1.040845 1.1421479e-05   0.46848345 0.00033629408            0   0.46814716    1.5352464    2.0037299    2.7834362 
 2335000    1.0654369 -3.5696868e-06   0.44466617  0.013194188            0   0.43147198    1.5715195    2.0161856     1.772495 
 2340000   0.99629318 -7.0300373e-05   0.57881645  0.030262722            0   0.54855372    1.4695324    2.0483489   -2.7508232 
 2345000    0.9537053 -9.9448187e-05    0.6168672  0.041999463            0   0.57486774    1.4067153    2.0235825   -4.7654137 
 2350000   0.86877113 3.3544903e-05   0.40150825  0.027922119            0   0.37358613    1.2814374    1.6829457    3.9729444 
 2355000    1.0677473 7.9606404e-05   0.51942868  0.020029455            0   0.49939923    1.5749273    2.0943559    7.5288198 
 2360000    1.0202703 -5.8312834e-06   0.49329981 0.0016222322            0   0.49167758    1.5048987    1.9981985    1.6001162 
 2365000    1.2984524 0.00012293212   0.42238868 0.0046813904            0   0.41770729    1.9152174     2.337606    10.729772 
 2370000    1.0767087 -2.5271021e-06   0.42831573 0.00025651836            0   0.42805921    1.5881453     2.016461    1.8439442 
 2375000    1.1355952 -2.7702847e-05   0.56340312 0.0026582291            0   0.56074489    1.6750029     2.238406   0.34722494 
 2380000    1.0299566 -7.1442789e-05   0.58833714  0.001377826            0   0.58695932     1.519186    2.1075232   -2.7696379 
 2385000    1.0346751 -7.2350913e-06   0.39995572            0            0   0.39995572    1.5261458    1.9261015     1.432186 
 2390000   0.92611305 1.5530556e-05   0.56640619   0.01502615            0   0.55138004    1.3660167    1.9324229    2.9926423 
 2395000    1.0312985 0.00010062633   0.65610212  0.011023086            0   0.64507903    1.5211652    2.1772673    9.0466917 
 2400000     1.122183 8.0731911e-05    0.6451957 0.0093138739            0   0.63588183      1.65522    2.3004157    7.8117141 
 2405000   0.95157319 2.1234619e-05   0.50451777 0.0092866574            0   0.49523111    1.4035705    1.9080882    3.3577049 
 2410000   0.97388162 1.3690246e-05   0.56944326   0.02405708            0   0.54538618    1.4364754    2.0059186    2.9405061 
 2415000    1.2871318 -6.0675026e-05   0.51460152  0.019451071            0   0.49515045    1.8985194    2.4131209   -1.7289609 
 2420000   0.95637557 2.4443623e-05      0.42262 0.0033086621            0   0.41931134     1.410654     1.833274    3.5019586 
 2425000    1.0556755 3.4487739e-05   0.58664094  0.047981297            0   0.53865965    1.5571214    2.1437623    4.4981253 
 2430000    1.1812262 7.4979488e-06     0.670742  0.028539259            0   0.64220274    1.7423087    2.4130507    2.9249107 
 2435000    1.0740246 4.0171114e-05   0.42427262  0.033444193            0   0.39082843    1.5841863     2.008459     4.750807 
 2440000    1.1483413 5.536833e-05   0.46301601  0.023512117            0   0.43950389    1.6938033    2.1568194    5.9366307 
 2445000   0.92071357 2.7996544e-05   0.73037638 0.00054322976            0   0.72983315    1.3580525    2.0884289    3.9996596 
 2450000   0.89924222 1.6193706e-05   0.70596487  0.060245402            0   0.64571947    1.3263823    2.0323471    3.1378375 
 2455000    1.0839453 -5.3402745e-05   0.43729275 0.0025131744            0   0.43477958    1.5988193    2.0361121   -1.6095153 
 2460000    1.0711788 8.0777395e-05   0.43990654  0.003376956            0   0.43652959    1.5799887    2.0198952    7.5342987 
 2465000   0.90572102 2.9273948e-05   0.38531044  0.012372087            0   0.37293835    1.3359385    1.7212489    3.7196838 
 2470000   0.96520683 -7.7069926e-05   0.51920586            0            0   0.51920586    1.4236801    1.9428859    -3.318421 
 2475000    1.0954126 -4.6826502e-05   0.53278594  0.014723248            0   0.51806269    1.6157337    2.1485196   -1.0481696 
 2480000    1.0663881 5.7575341e-05   0.36598012 0.0010355692            0   0.36494455    1.5729224    1.9389025    5.8693791 
 2485000    1.2771444 -1.0567245e-05   0.43960016  0.007722733            0   0.43187743     1.883788    2.3233881    1.6019975 
 2490000   0.95027416 3.339596e-05   0.61266467  0.024734001            0   0.58793067    1.4016544    2.0143191      4.29415 
 2495000    1.2022658 8.3997506e-05   0.53301437  0.019420649            0   0.51359372    1.7733421    2.3063565    8.0405862 
 2500000   0.97150077 -7.9186696e-05   0.47707266  0.020886393            0   0.45618627    1.4329636    1.9100363   -3.4957755 
 2505000   0.95676752 -7.9513682e-05   0.71653724  0.028569643            0    0.6879676    1.4112321    2.1277693   -3.3003647 
 2510000   0.98411105 -5.2184922e-05   0.40576803 4.0022128e-06            0   0.40576403    1.4515638    1.8573318   -1.7051588 
 2515000   0.99930494 -3.6014562e-05   0.38113291 0.00020533493            0   0.38092757    1.4739748    1.8551077  -0.60348637 
 2520000   0.82916788 3.5087295e-05   0.49609523  0.018973087            0   0.47712215    1.2230226    1.7191179    4.1144105 
 2525000   0.96994808 -5.1761246e-05   0.54488305  0.046038852            0    0.4988442    1.4306734    1.9755565   -1.5580113 
 2530000    1.0102146 8.2344894e-05   0.74431503  0.008897276            0   0.73541776    1.4900666    2.2343816     7.855793 
 2535000    1.1045411 -1.8142479e-05   0.43287097 0.0019676047            0   0.43090336    1.6291981     2.062069   0.82354245 
 2540000    1.0128731 2.2266023e-05   0.38905978  0.010639449            0   0.37842033    1.4939878    1.8830476    3.4030747 
 2545000    1.1607106 -2.4827459e-05   0.39018714            0            0   0.39018714    1.7120482    2.1022353   0.40734742 
 2550000   0.85863426 0.00012685184   0.42091764  0.017165124            0   0.40375252    1.2664855    1.6874032    10.347156 
 2555000    1.0838691 9.6290808e-05   0.43922488  0.037582193            0   0.40164269     1.598707    2.0379318    8.6113843 
 2560000    1.0507775 -2.2146663e-05   0.41115823            0            0   0.41115823    1.5498968    1.9610551   0.44917622 
 2565000   0.77272113 3.660194e-05   0.51708732  0.017877567            0   0.49920975    1.1397637     1.656851    4.1555434 
 2570000     1.081399 6.8885062e-06   0.49958612 0.0073613076            0   0.49222481    1.5950636    2.0946497    2.5649051 
 2575000    1.1140483 -2.6233851e-05   0.34407234  0.012644359            0   0.33142799    1.6432213    1.9872937   0.19639608 
 2580000   0.90612151 1.224371e-05   0.49193692  0.055102635            0   0.43683429    1.3365292    1.8284661    2.6643034 
 2585000   0.99059196 5.1652791e-05   0.58863971  0.048892361            0   0.53974735    1.4611231    2.0497628    5.5759267 
 2590000   0.87405725 4.2007555e-05    0.5536273 0.0081210246            0   0.54550627    1.2892344    1.8428617    4.7105775 
 2595000    1.0173872 6.5586615e-05   0.45113403  0.011646279            0   0.43948775    1.5006461    1.9517801    6.4291597 
 2600000     1.005038 -1.5923888e-05    0.6128164  0.033944599            0    0.5788718    1.4824311    2.0952475    1.0081767 
 2605000   0.93892029 4.0486985e-05   0.54305856  0.090600605            0   0.45245795    1.3849074     1.927966    4.6918775 
 2610000    1.0515546 3.4997059e-05   0.45497585  0.011624467            0   0.44335138     1.551043    2.0060188    4.3951514 
 2615000    1.0759947 2.749242e-05   0.51225464  0.026031536            0    0.4862231    1.5870922    2.0993468    3.9761627 
 2620000   0.95519035 3.3078424e-05   0.52881856  0.074511135            0   0.45430743    1.4089058    1.9377243    4.1958781 
 2625000   0.93339547 5.1110163e-06   0.53047126  0.013979165            0    0.5164921    1.3767583    1.9072296    2.2561416 
 2630000   0.97516227 -6.3914901e-05   0.41356843 0.0047227402            0   0.40884569    1.4383643    1.8519328   -2.5113244 
 2635000   0.98890733 2.7570043e-05   0.38282779 0.0029744964            0   0.37985329    1.4586383    1.8414661     3.723581 
 2640000   0.93814799 -1.9487618e-05   0.59360215  0.024072326            0   0.56952983    1.3837683    1.9773704   0.64701575 
 2645000     1.165563 -3.5885978e-05   0.66150575  0.011428735            0   0.65007702    1.7192054    2.3807111 -0.069104979 
 2650000    1.1154684 -5.9464064e-06    0.3603297 0.0066184053            0   0.35371129    1.6453159    2.0056456    1.5997043 
 2655000   0.87609252 2.9138337e-06   0.43417364  0.065272715            0   0.36890092    1.2922365    1.7264101    1.9253278 
 2660000   0.86712999 -6.4339431e-05    0.6266058  0.028041714            0   0.59856408    1.2790167    1.9056225   -2.4866159 
 2665000   0.99386128 5.9198934e-05   0.50873894  0.019267472            0   0.48947147    1.4659454    1.9746843    6.0159982 
 2670000   0.90503785 -5.1952284e-05   0.63598102  0.014836867            0   0.62114416    1.3349308    1.9709119   -1.5756974 
 2675000   0.94369182 3.1823238e-05   0.45300236   0.01097724            0   0.44202512    1.3919454    1.8449478    4.0174142 
 2680000    1.0529395 -7.787111e-05   0.53306123   0.08373773            0    0.4493235    1.5530857    2.0861469   -3.2298542 
 2685000    1.1243192 0.0001063017   0.62268816   0.04293166            0    0.5797565    1.6583708    2.2810589    9.5379218 
 2690000    1.1401505 8.3428103e-05   0.48817735  0.029027552            0   0.45914979     1.681722    2.1698993    7.8652578 
 2695000    1.1409892 -3.1450003e-05   0.73150437  0.060259762            0   0.67124461    1.6829591    2.4144635   0.26747658 
 2700000   0.92002138 9.2183185e-05    0.5384768  0.058352003            0    0.4801248    1.3570315    1.8955083    8.1885471 
 2705000    1.1687636 -4.6453932e-05   0.36628639  0.046543105            0   0.31974329    1.7239263    2.0902127   -1.0810424 
 2710000    1.0279618 -2.9246339e-05   0.68740966  0.037528961            0    0.6498807    1.5162437    2.2036533   0.20710324 
 2715000    1.0814735 -0.00018812997   0.65707587  0.038242378            0   0.61883349    1.5951734    2.2522492   -10.590757 
 2720000    1.0403435 8.002005e-05   0.47615489  0.032471599            0   0.44368329    1.5345067    2.0106616    7.4733637 
 2725000    1.1753516 -3.7413897e-06   0.44898694 0.0099968626            0   0.43899008    1.7336437    2.1826306    1.9272184 
 2730000    0.8890534 -9.2552774e-05   0.45990909   0.02595574            0   0.43395335    1.3113538    1.7712629   -4.5470065 
 2735000     1.086571 -5.2102888e-05   0.46200881 0.0073673966            0   0.45464141    1.6026923    2.0647011   -1.4921894 
 2740000   0.77473727 4.1777275e-07   0.57857211  0.073682501            0   0.50488961    1.1427375    1.7213096    1.7498295 
 2745000   0.88722631 6.4826582e-05   0.62472862 0.0096842992            0   0.61504432    1.3086588    1.9333874    6.3588821 
 2750000    1.2637545 -1.7294354e-05   0.50686263  0.032465027            0   0.47439761    1.8640379    2.3709005    1.1902726 
 2755000    1.0332443 0.00011745501   0.80018836  0.012876935            0   0.78731142    1.5240353    2.3242236    10.342486 
 2760000    1.1430142 0.00014596422   0.51545155 0.0067608458            0    0.5086907    1.6859459    2.2013975    12.165888 
 2765000     1.241102 -2.0554568e-05   0.55875937 0.0086707268            0   0.55008865    1.8306254    2.3893848   0.98619298 
 2770000    1.1196382 -3.029935e-05   0.42158363 0.0097061532            0   0.41187748    1.6514663    2.0730499 0.0046142951 
 2775000    1.1311248 2.1756384e-05   0.46776152  0.049938023            0    0.4178235    1.6684091    2.1361706    3.6214064 
 2780000    1.0897134 1.2275085e-05   0.69875635 0.0005696026            0   0.69818675    1.6073272    2.3060836    3.1440628 
 2785000   0.94475308 3.2228243e-05   0.56930174  0.051297511            0   0.51800423    1.3935108    1.9628125    4.1629272 
 2790000    1.0941452 -7.2602202e-05   0.61862387  0.014154329            0   0.60446955    1.6138642    2.2324881   -2.7238222 
 2795000   0.93506706 2.2402175e-05    0.5890151 0.00048848287            0   0.58852662    1.3792239     1.968239    3.4975608 
 2800000     1.161782 1.6573725e-05   0.46114138 0.0054239829            0    0.4557174    1.7136284    2.1747698    3.3062028 
 2805000   0.98465529 -2.6361593e-05   0.49592627    0.0102737            0   0.48565257    1.4523666    1.9482928   0.14867475 
 2810000    1.0791851 5.8270481e-06   0.52253592 0.0055059947            0   0.51702992     1.591798    2.1143339    2.5121271 
 2815000   0.89760435 8.7371262e-05   0.46412328 0.0017045825            0   0.46241869    1.3239664    1.7880897    7.7526345 
 2820000     1.064682 -6.9753738e-05    0.5312572  0.066874505            0    0.4643827     1.570406    2.1016632    -2.660192 
 2825000    1.0492007 -6.0418888e-05   0.43195266  0.008615281            0   0.42333738     1.547571    1.9795236   -2.1450724 
 2830000    1.0354749 9.5755277e-05   0.59139026  0.058842576            0   0.53254768    1.5273254    2.1187157    8.6556093 
 2835000    1.2402315 -4.7408327e-06   0.69781339  0.041040778            0   0.65677261    1.8293414    2.5271548     2.203514 
 2840000   0.93053131 5.0653438e-05    0.5492533 0.0097512916            0   0.53950201    1.3725337     1.921787    5.3797283 
 2845000    1.0848173 0.00013102433   0.56583666 0.0056817081            0   0.56015495    1.6001055    2.1659422    11.110536 
 2850000   0.86451283 3.3703449e-05   0.64654091  0.064284829            0   0.58225608    1.2751564    1.9216973    4.2225195 
 2855000      1.10564 2.0112102e-05   0.66532783  0.057843459            0   0.60748437     1.630819    2.2961468     3.669133 
 2860000   0.88088711 -9.4553913e-05   0.36874379  0.056681616            0   0.31206217    1.2993085    1.6680523   -4.7868282 
 2865000    1.0830144 1.9363257e-05   0.43722539  0.011723091            0    0.4255023    1.5974463    2.0346717    3.3565367 
 2870000   0.92221151 3.7579562e-05   0.76254139  0.011691854            0   0.75084954     1.360262    2.1228034    4.6882348 
 2875000    1.0741132 -2.312514e-05    0.4989301 0.0040992711            0   0.49483083     1.584317    2.0832471   0.50457093 
 2880000   0.86895863 -4.0574224e-05   0.38564822  0.027866778            0   0.35778144     1.281714    1.6673622   -1.1025048 
 2885000    1.0918752 3.8120424e-05   0.50438717  0.017290711            0   0.48709646    1.6105159    2.1149031    4.7172574 
 2890000   0.94878448 1.1268514e-05   0.50297323   0.04275446            0   0.46021877    1.3994571    1.9024303    2.6716942 
 2895000    1.0511541 5.3793455e-05   0.51404853  0.033840464            0   0.48020807    1.5504524    2.0645009    5.7368007 
 2900000    1.1712355 -1.1070512e-05    0.4409779  0.057622581            0   0.38335532    1.7275723    2.1685502    1.4128033 
 2905000    1.0502543 -1.2348909e-05   0.61060313 0.0072037305            0    0.6033994     1.549125    2.1597282    1.3167093 
 2910000   0.93272442 -1.22433e-05   0.39780937  0.015160625            0   0.38264875    1.3757685    1.7735779   0.93776862 
 2915000   0.96747203 4.6749401e-06   0.52615086  0.054366266            0    0.4717846    1.4270212    1.9531721    2.2723147 
 2920000    1.0825756 5.4752224e-06   0.58868658  0.014630661            0   0.57405592     1.596799    2.1854855    2.5592607 
 2925000   0.94845674 5.117758e-05   0.47219878  0.027222219            0   0.44497656    1.3989737    1.8711725    5.3648953 
 2930000    1.0047459 -3.9098155e-05   0.49458534  0.020120522            0   0.47446482    1.4820001    1.9765855  -0.69251523 
 2935000    1.0411693 -0.00010187148   0.44779366 7.0671997e-05            0   0.44772299    1.5357247    1.9835184   -4.9709077 
 2940000   0.91177286 -0.00012174861   0.47435257  0.013874937            0   0.46047764     1.344865    1.8192175   -6.4921542 
 2945000   0.99765831 -4.3079978e-05   0.38548586  0.023850765            0    0.3616351     1.471546    1.8570319   -1.0838946 
 2950000   0.96966498 6.3916598e-05   0.44278003   0.01568895            0   0.42709108    1.4302558    1.8730359    6.2364089 
 2955000     0.780207 -9.1137163e-05    0.6186396  0.014038014            0   0.60460159    1.1508053    1.7694449   -4.4521854 
 2960000    1.2383294 7.527934e-06   0.56012913  0.046802811            0   0.51332632    1.8265358    2.3866649    2.9005719 
 2965000   0.94492155 9.8809855e-05   0.50313709  0.025931283            0   0.47720581    1.3937593    1.8968964    8.6423158 
 2970000   0.96873579 0.00010084482   0.41854712  0.011598653            0   0.40694847    1.4288853    1.8474324    8.7317721 
 2975000   0.80975675 -6.094772e-05    0.4912885 0.0070166675            0   0.48427183    1.1943912    1.6856797    -2.475018 
 2980000    1.0528992 -1.4015401e-05   0.51167911 0.0018362729            0   0.50984284    1.5530264    2.0647055    1.1079208 
 2985000   0.90307941 2.4260976e-05   0.55905948  0.051227156            0   0.50783232    1.3320421    1.8911016    3.5473176 
 2990000    1.1158252 9.4101435e-06   0.42847906  0.023767315            0   0.40471174    1.6458422    2.0743213    2.7167204 
 2995000    1.0183739 1.271495e-05   0.53813345  0.052260982            0   0.48587247    1.5021015    2.0402349    2.9082422 
 3000000    1.1687915 6.1205222e-05   0.71832106  0.022144515            0   0.69617654    1.7239675    2.4422886     6.620565 
 3005000   0.95943333 1.8135585e-05   0.49551765  0.025480453            0    0.4700372    1.4151642    1.9106818    3.1487378 
 3010000    1.1506079 3.8748877e-05   0.44638927   0.01220729            0   0.43418198    1.6971466    2.1435359    4.7887925 
 3015000   0.95725641 -5.2937782e-05   0.57631389 0.0085640046            0   0.56774988    1.4119532    1.9882671   -1.6256188 
 3020000   0.87402253 -1.7985194e-05   0.71916576  0.044877622            0   0.67428814    1.2891832     2.008349   0.78055978 
 3025000   0.85747035 -0.00012447122   0.69889235  0.011660449            0    0.6872319    1.2647688    1.9636611   -6.5335739 
 3030000    1.1487362 -8.0396225e-05   0.40302465  0.015401734            0   0.38762291     1.694386    2.0974106   -3.3909717 
 3035000    1.1381074 2.4200581e-05   0.45593952   0.00361283            0   0.45232669    1.6787084    2.1346479     3.786741 
 3040000   0.93438646 6.2898224e-05   0.53995195  0.015119938            0   0.52483201      1.37822     1.918172    6.2120241 
 3045000   0.89962937 1.7021623e-05   0.41082193 0.0099769904            0   0.40084494    1.3269533    1.7377753    2.8997847 
 3050000   0.83387273 -6.643475e-05   0.34550755  0.017344908            0   0.32816264    1.2299623    1.5754698   -2.9598091 
 3055000   0.87316315 -4.371654e-05   0.58948392  0.053368313            0   0.53611561    1.2879156    1.8773996   -1.1069829 
 3060000   0.87483737 -7.338077e-05   0.56936653  0.014411345            0   0.55495519    1.2903851    1.8597517   -3.1497089 
 3065000   0.89479358 -2.4875835e-05   0.63717927  0.037824044            0   0.59935523    1.3198205    1.9569998   0.25880944 
 3070000   0.84359191 1.1372565e-05   0.46516105 0.0014990089            0   0.46366204    1.2442981    1.7094591    2.4858262 
 3075000   0.97829966 -5.8629115e-05   0.42010579  0.016640809            0   0.40346498     1.442992    1.8630978   -2.1393165 
 3080000   0.94609739 6.6391177e-06   0.67237921  0.012955571            0   0.65942363    1.3954936    2.0678728    2.5211033 
 3085000   0.86117869 -1.4307394e-05   0.45025069 0.0072830262            0   0.44296767    1.2702386    1.7204893   0.74377113 
 3090000   0.87935269 -1.4656923e-05   0.68507048  0.065903506            0   0.61916698    1.2970452    1.9821157   0.98153643 
 3095000    1.0339684 9.4233999e-05   0.36105345   0.01090484            0   0.35014861    1.5251033    1.8861568    8.3191978 
 3100000     1.107201 -4.8331311e-05   0.39635881  0.038688829            0   0.35766998    1.6331215    2.0294804   -1.2699371 
 3105000    1.0297781 8.1443663e-07   0.34621297 0.0020199312            0   0.34419304    1.5189227    1.8651357    1.9207346 
 3110000    1.0465857 -6.8352416e-05     0.488271  0.022830012            0   0.46544099     1.543714     2.031985   -2.6342066 
 3115000   0.98227466 4.1704787e-05   0.66399584  0.013713837            0     0.650282    1.4488551     2.112851    4.9598978 
 3120000    1.0107873 7.3253341e-05   0.46661238  0.023952856            0   0.44265952    1.4909112    1.9575236     6.958285 
 3125000   0.95607952 -3.4814372e-05   0.74337665  0.022442915            0   0.72093373    1.4102173    2.1535939  -0.22306721 
 3130000    1.0329417 -3.7351989e-05   0.51449114 0.0061588389            0    0.5083323     1.523589    2.0380801  -0.51181569 
 3135000    1.0205655 6.613739e-05    0.3906116  0.021596265            0   0.36901533    1.5053341    1.8959457    6.4109249 
 3140000    1.2452259 8.7152061e-05   0.38851303 0.0095958391            0   0.37891719    1.8367082    2.2252213    8.1748019 
 3145000   0.90143643 -5.197082e-05     0.525894  0.019497604            0    0.5063964    1.3296187    1.8555127   -1.6923619 
 3150000    1.0340324 5.8643961e-05   0.68938102  0.029907343            0   0.65947368    1.5251979    2.2145789    6.2180066 
 3155000    1.1353074 5.6408826e-05   0.46391246 0.0083586827            0   0.45555378    1.6745785    2.1384909    5.9893335 
 3160000    1.1582783 1.9279779e-05   0.44033395 0.0066073709            0   0.43372658    1.7084604    2.1487944    3.4649607 
 3165000   0.98484151 -8.5699507e-05   0.47124717  0.016420456            0   0.45482672    1.4526412    1.9238884   -3.9265313 
 3170000   0.95604082 1.8720767e-05   0.40419132 0.0085743445            0   0.39561697    1.4101602    1.8143515    3.0923559 
 3175000   0.95046544 -8.6184753e-05    0.6494977  0.012035975            0   0.63746172    1.4019365    2.0514342   -3.8321116 
 3180000   0.91331144 9.788279e-06   0.50447447  0.055688842            0   0.44878563    1.3471344    1.8516088     2.519822 
 3185000    1.0115426 4.9211282e-05   0.35356864            0            0   0.35356864    1.4920253    1.8455939    5.2050841 
 3190000   0.95667457 -4.5914768e-05   0.58426523  0.013518267            0   0.57074696     1.411095    1.9953602   -1.1390879 
 3195000    1.0078895 -3.3203183e-06   0.59031841  0.074805676            0   0.51551274    1.4866369    2.0769554    1.8502883 
 3200000   0.85006194 1.1446514e-05   0.53626244  0.020964907            0   0.51529753    1.2538414    1.7901038    2.5715192 
 3205000    1.0783865 -5.5444052e-05   0.45334752   0.02024507            0   0.43310245    1.5906201    2.0439676    -1.741013 
 3210000   0.99533322 -3.4236552e-05   0.62038266 0.0011725662            0    0.6192101    1.4681165    2.0884992  -0.24871612 
 3215000    1.1147658 4.8732957e-05   0.63261624   0.03279875            0   0.59981749    1.6442796    2.2768958    5.6037323 
 3220000    1.0973476 -2.1603911e-05   0.42904147 0.0011488852            0   0.42789258    1.6185878    2.0476292   0.57280224 
 3225000    1.1009152 4.256795e-05   0.55308914  0.043820768            0   0.50926837    1.6238499     2.176939    5.0829111 
 3230000    1.0895203 -8.3422384e-05   0.32577421  0.008705385            0   0.31706882    1.6070425    1.9328167   -3.7621513 
 3235000   0.71283595 -4.4859706e-05   0.37200826  0.001310782            0   0.37069748     1.051433    1.4234413   -1.6389813 
 3240000    1.1438708 1.4844589e-05   0.43401304  0.070478866            0   0.36353418    1.6872095    2.1212225    3.1346132 
 3245000    1.1368874 -6.0087375e-05   0.54064355  0.052988356            0   0.48765519     1.676909    2.2175525   -1.8844123 
 3250000    1.0002479 3.8991023e-05   0.62235913  0.016245722            0   0.60611341    1.4753656    2.0977248     4.759512 
 3255000   0.94155557 -2.3050499e-05   0.51459616  0.011775509            0   0.50282065    1.3887945    1.9033906   0.32980992 
 3260000    1.1430492 3.6087911e-05   0.49598048  0.066356185            0    0.4296243    1.6859976    2.1819781    4.6455795 
 3265000     1.010904 9.7207437e-05   0.47438451 0.0030918074            0    0.4712927    1.4910833    1.9654678    8.6014955 
 3270000   0.99015019 1.3113988e-05   0.54688862  0.011206467            0   0.53568215    1.4604715    2.0073601    2.9026084 
 3275000   0.98065537 7.4808474e-05   0.60584571  0.033256876            0   0.57258883    1.4464667    2.0523124    7.1592375 
 3280000   0.94556078 -6.4671686e-06   0.56313598  0.005264974            0   0.55787101    1.3947022    1.9578381    1.5163461 
 3285000   0.98878453 -6.7086959e-05    0.5411601   0.14011001            0   0.40105009    1.4584572    1.9996173   -2.5801858 
 3290000    1.0725276 -5.8298786e-05   0.53009444            0            0   0.53009444    1.5819782    2.1120726   -1.8677911 
 3295000   0.87661937 -3.0764968e-05   0.53669002   0.01127866            0   0.52541136    1.2930136    1.8297036  -0.27051826 
 3300000    1.0674444 3.5641112e-05   0.41351397  0.022029692            0   0.39148427    1.5744804    1.9879944    4.4210943 
 3305000    1.0794938 -2.2476326e-05   0.55417904  0.053394539            0   0.50078451    1.5922534    2.1464324   0.61204854 
 3310000    1.1150861 -3.9237539e-05   0.48041187  0.026290708            0   0.45412117     1.644752    2.1251639  -0.55345214 
 3315000   0.94160778 -0.00013152684   0.49375016 0.0069551788            0   0.48679498    1.3888715    1.8826216   -7.0962776 
 3320000    1.2525403 -5.3314192e-05   0.36060746 0.0024232962            0   0.35818417    1.8474969    2.2081044   -1.4314778 
 3325000   0.94244325 -8.6744055e-05   0.46286885  0.015321371            0   0.44754748    1.3901038    1.8529726   -4.0687549 
 3330000    1.0925099 -6.9887444e-05   0.42954831  0.018442594            0   0.41110572     1.611452    2.0410003   -2.7299825 
 3335000    1.0088047 -5.3313939e-05   0.42575437  0.020878249            0   0.40487612     1.487987    1.9137414   -1.7258235 
 3340000   0.97830553 2.5961672e-05   0.42215405  0.016181189            0   0.40597286    1.4430007    1.8651547    3.6374715 
 3345000   0.80366363 -1.477969e-05   0.57309636 0.0070719902            0   0.56602437    1.1854039    1.7585002   0.74954004 
 3350000    1.0337578 3.6238067e-05   0.32315857 0.0070317666            0   0.31612681    1.5247928    1.8479514    4.3218034 
 3355000    1.0743562 0.00011837954   0.41432146  0.032466539            0   0.38185492    1.5846753    1.9989968    10.080373 
 3360000   0.97034363 2.3502949e-05   0.43081724  0.013549351            0   0.41726788    1.4312569    1.8620741    3.4665421 
 3365000     1.008032 0.00010573027   0.64232855  0.053938335            0   0.58839021    1.4868471    2.1291757    9.3470286 
 3370000    1.2486141 -5.0145428e-05    0.5095374  0.011709103            0   0.49782829    1.8417058    2.3512432    -1.072018 
 3375000    1.0544671 0.00010862887   0.50323865  0.039811289            0   0.46342736     1.555339    2.0585776    9.4743088 
 3380000   0.95900009 -1.649252e-05   0.44774961  0.012525682            0   0.43522393    1.4145251    1.8622747   0.73638537 
 3385000    1.0638831 5.6714306e-05   0.47785932   0.02944727            0   0.44841205    1.5692276    2.0470869    5.9187835 
 3390000    1.0472475 -3.6210761e-05   0.43215258  0.029138375            0   0.40301421    1.5446901    1.9768427  -0.49514525 
 3395000    1.1478404 -5.8339198e-05   0.50278383  0.017941993            0   0.48484184    1.6930646    2.1958484   -1.7867742 
 3400000    0.9589264 3.4393985e-05    0.6576908  0.045165693            0   0.61252511    1.4144164    2.0721072      4.42007 
 3405000     0.934658 -2.4957707e-05   0.67244008 0.0093644568            0   0.66307563    1.3786206    2.0510606    0.3472812 
 3410000    0.9923861 1.4226413e-05     0.488354  0.044561818            0   0.44379218    1.4637695    1.9521235    2.9233133 
 3415000   0.97314642 6.5584116e-05   0.56933573 0.0033292487            0   0.56600648     1.435391    2.0047267    6.4819357 
 3420000   0.88085059 -5.2863086e-05   0.45766493 0.0011219975            0   0.45654293    1.2992546    1.7569195   -1.8518671 
 3425000   0.92468084 0.00014111838   0.39666338 0.0056224358            0   0.39104094    1.3639042    1.7605676    11.394249 
 3430000    1.0522128 6.6110617e-05   0.54478955  0.026250976            0   0.51853857    1.5520139    2.0968035    6.6099549 
 3435000     1.022232 -1.3027238e-05   0.45035443 0.00047544852            0   0.44987898    1.5077922    1.9581466    1.0688205 
 3440000    1.0541878 -1.1804929e-05   0.47707712  0.082023929            0    0.3950532    1.5549271    2.0320042     1.226121 
 3445000   0.86636516 -3.0052833e-05   0.51598275  0.061171482            0   0.45481127    1.2778886    1.7938714  -0.25773539 
 3450000   0.90220678 -4.9701885e-05   0.46396577 0.0059848917            0   0.45798087     1.330755    1.7947208   -1.5982612 
 3455000    1.0252132 3.9993787e-05    0.5332717  0.058429492            0   0.47484221    1.5121894    2.0454611    4.7757036 
 3460000   0.90942713 9.0624775e-06   0.66065079  0.036599701            0   0.62405109     1.341405    2.0020558    2.6207209 
 3465000   0.91567311 3.0064349e-05   0.39874291 0.0042480358            0   0.39449488    1.3506178    1.7493607    3.8017537 
 3470000    1.0772223 -6.7394559e-05   0.57419105  0.011408835            0   0.56278221    1.5889029    2.1630939    -2.437708 
 3475000    1.0138986 -8.7634535e-06   0.51816078 0.0055420691            0   0.51261871    1.4955005    2.0136612    1.4154095 
 3480000    1.2936966 -8.9164842e-05   0.52303572 0.0091863404            0   0.51384938    1.9082025    2.4312383   -3.6557483 
 3485000    1.1990802 5.3040675e-05   0.48706661  0.021078873            0   0.46598774    1.7686433    2.2557099      5.87662 
 3490000    1.0827986 -3.7261797e-05   0.40131249 0.0028470008            0   0.39846549     1.597128    1.9984405  -0.54529819 
 3495000    1.0548505 3.8841449e-05   0.65873386  0.056836611            0   0.60189725    1.5559044    2.2146383    4.8662146 
 3500000   0.88550568 -8.4588457e-06   0.43667513  0.024406984            0   0.41226815    1.3061209     1.742796    1.1653388 
 3505000   0.99090088 -5.4275555e-05   0.41522337  0.006693846            0   0.40852952    1.4615788    1.8768022   -1.8284091 
 3510000   0.95826109 6.599364e-05   0.50902325  0.056709355            0    0.4523139    1.4134351    1.9224584    6.4276242 
 3515000     1.152788 3.3637468e-06   0.45717841  0.017891975            0   0.43928643    1.7003623    2.1575407    2.3871725 
 3520000   0.91198861 -9.0857023e-05   0.48260093  0.013445491            0   0.46915544    1.3451832    1.8277841    -4.374722 
 3525000    1.0808019 2.2750281e-05   0.47093548  0.012899256            0   0.45803622    1.5941828    2.0651183    3.6182042 
 3530000    1.0719619 9.718817e-06   0.43003116 0.0060263859            0   0.42400478    1.5811438    2.0111749    2.6746462 
 3535000    1.0481439 -5.0433795e-06   0.52839228  0.032211569            0   0.49618071    1.5460122    2.0744045    1.7301098 
 3540000    1.0922222 6.6985266e-05   0.42473718  0.036013029            0   0.38872415    1.6110278     2.035765    6.6086258 
 3545000    1.0966457 9.2449607e-05   0.47542116  0.011571386            0   0.46384978    1.6175525    2.0929736    8.4042001 
 3550000    1.1521374 -5.1612894e-05   0.42358446 0.0024318854            0   0.42115257    1.6994027    2.1229871   -1.4004531 
 3555000   0.98686379 -0.00010831478   0.56660759  0.041734513            0   0.52487308    1.4556241    2.0222317   -5.3720571 
 3560000    1.0095122 -7.77671e-06   0.39610689  0.029499578            0   0.36660731    1.4890306    1.8851374    1.3542474 
 3565000    0.9532579 -5.0829832e-05   0.51098917  0.033712333            0   0.47727683    1.4060554    1.9170446   -1.5529386 
 3570000   0.87496972 4.5773988e-05   0.57303925  0.028310502            0   0.54472875    1.2905803    1.8636196    4.9884571 
 3575000   0.97387954 3.1861044e-05   0.50535705 0.0042440451            0     0.501113    1.4364723    1.9418294    4.1168766 
 3580000   0.80547394 -3.3888925e-06   0.39675023    0.0260729            0   0.37067733    1.1880741    1.5848243    1.3534759 
 3585000   0.93087424 1.332343e-05    0.5209057  0.026907767            0   0.49399793    1.3730395    1.8939452    2.8034914 
 3590000   0.98831331 -7.7746284e-05   0.49716203 0.0030765258            0   0.49408551    1.4577621    1.9549242   -3.3525555 
 3595000    1.0373293 -5.832648e-05   0.50396174  0.010291938            0    0.4936698    1.5300607    2.0340225   -1.9477319 
 3600000   0.99272734 6.9228822e-05   0.37422971 0.0011396487            0   0.37309006    1.4642728    1.8385025    6.5645235 
 3605000    1.2895379 5.4228887e-05   0.58382328 0.00081957932            0    0.5830037    1.9020685    2.4858917    6.1879171 
 3610000   0.97150564 -5.9616379e-05   0.58666275  0.050909834            0   0.53575292    1.4329708    2.0196336   -2.0501779 
 3615000   0.88722881 -3.6991504e-05   0.56721539  0.070665089            0    0.4965503    1.3086625    1.8758779  -0.64940876 
 3620000   0.95577847 -0.00012530016   0.56939946 0.0037706994            0   0.56562876    1.4097732    1.9791727   -6.5746514 
 3625000    1.0423868 8.2473469e-05   0.50625822  0.011084403            0   0.49517382    1.5375205    2.0437787    7.6739675 
 3630000    1.1275146 0.00010725513   0.81198315  0.033152619            0   0.77883053    1.6630841    2.4750672    9.7970176 
 3635000   0.96256238 -9.2593429e-06   0.45610013 0.0031180392            0   0.45298209    1.4197795    1.8758796    1.2437752 
 3640000    1.1450447 3.1026875e-05    0.4107471  0.014944516            0   0.39580259    1.6889409     2.099688    4.2177893 
 3645000    1.0494016 -3.2134106e-05   0.37499611  0.015635155            0   0.35936095    1.5478674    1.9228635  -0.27082482 
 3650000   0.90152792 -2.177989e-05   0.37247804 0.00040423375            0    0.3720738    1.3297537    1.7022317   0.21539122 
 3655000    1.0238233 -6.1860867e-06   0.60729568  0.015264485            0    0.5920312    1.5101393     2.117435    1.6951315 
 3660000   0.97992693 -8.9958341e-05   0.69837463  0.018038815            0   0.68033582    1.4453922    2.1437669   -3.9973892 
 3665000    1.0297215 1.7477771e-06   0.43495596  0.025597681            0   0.40935828    1.5188393    1.9537952    2.0731101 
 3670000   0.85415121 -7.9480528e-05   0.54208406  0.010175801            0   0.53190826     1.259873    1.8019571   -3.6239136 
 3675000    1.0627859 6.1700211e-06    0.5051148  0.010534485            0   0.49458032    1.5676092     2.072724    2.4939308 
 3680000    0.8780095 1.0501897e-05   0.51522249  0.013930766            0   0.50129172     1.295064    1.8102865     2.527216 
 3685000   0.87447986 -0.00012920899   0.55756939 0.0025723028            0   0.55499708    1.2898578    1.8474272     -6.97324 
 3690000    1.2595167 2.6725101e-06   0.41461896  0.009646555            0   0.40497241    1.8577871     2.272406    2.4548494 
 3695000   0.92083628 9.3541519e-05   0.51987952  0.011041089            0   0.50883843    1.3582335     1.878113    8.2638807 
 3700000     1.113203 -2.4438432e-05   0.51628141 0.0077244787            0   0.50855693    1.6419745    2.1582559   0.48992561 
 3705000    1.0464706 -3.3042637e-05   0.46755407 0.0050383411            0   0.46251573    1.5435441    2.0110982  -0.24461254 
 3710000   0.88868661 -3.6389687e-05   0.60057317  0.021048098            0   0.57952507    1.3108127    1.9113859  -0.57281672 
 3715000    1.3124092 9.9197084e-05     0.436148  0.029024565            0   0.40712343    1.9358035    2.3719515    9.1438058 
 3720000   0.90046302 -1.5550256e-05   0.34247954 0.0039303075            0   0.33854924     1.328183    1.6706625   0.60909838 
 3725000    1.1580097 -4.8402726e-05    0.6176699  0.010086503            0    0.6075834    1.7080643    2.3257342   -0.9785586 
 3730000    1.0410935 -6.5555134e-05   0.42762874 0.0059198783            0   0.42170886    1.5356129    1.9632417   -2.5119888 
 3735000   0.88820168 -0.00010188923    0.5633288  0.049453761            0   0.51387504    1.3100975    1.8734263    -5.082212 
 3740000   0.74300876 8.7975301e-05   0.42279142  0.017204505            0   0.40558691    1.0959379    1.5187293    7.5245099 
 3745000   0.85793345 1.724787e-05   0.54016136  0.065402054            0   0.47475931    1.2654518    1.8056132    2.9830678 
 3750000    1.1059819 -3.4179403e-05   0.42440651 0.00012606848            0   0.42428044    1.6313233    2.0557298   -0.2775841 
 3755000    1.1193227 7.7437839e-05    0.3421915 0.0037658775            0   0.33842562    1.6510009    1.9931924    7.2796156 
 3760000   0.93592917 -4.4566765e-05   0.48162203 0.0049888725            0   0.47663315    1.3804955    1.8621176    -1.180307 
 3765000    1.1133277 8.1751057e-05   0.55379197  0.015159948            0   0.53863202    1.6421583    2.1959503    7.7768224 
 3770000   0.84630812 -9.1906989e-06   0.67939996  0.015143043            0   0.66425691    1.2483045    1.9277044    1.3002861 
 3775000   0.98092882 -1.9581041e-05   0.54755423  0.010400619            0   0.53715361      1.44687    1.9944242   0.65769184 
 3780000   0.94139329 -3.5998237e-05   0.58872316  0.005482138            0   0.58324102    1.3885551    1.9772783  -0.48020138 
 3785000    1.0635184 -4.442854e-05   0.71206774  0.022684655            0   0.68938308    1.5686897    2.2807574  -0.75223097 
 3790000   0.94656832 -6.1160179e-05   0.48801174 0.0060716233            0   0.48194011    1.3961883       1.8842   -2.2910016 
 3795000   0.88827563 -1.542623e-05   0.45050093 0.0066390018            0   0.44386193    1.3102066    1.7607075   0.70761018 
 3800000    1.0934088 -9.052547e-05   0.45758143  0.012626882            0   0.44495454     1.612778    2.0703594   -4.1095127 
 3805000    1.0288572 -6.1204899e-05   0.52312202  0.024477795            0   0.49864423    1.5175643    2.0406863   -2.1375681 
 3810000    1.0513055 -0.00010170251   0.54786429  0.017715996            0   0.53014829    1.5506755    2.0985398   -4.8443513 
 3815000   0.98228276 5.7209185e-05    0.7004263  0.027475026            0   0.67295127    1.4488671    2.1492934    6.0547737 
 3820000   0.99430757 -9.800483e-05   0.66202558  0.011422878            0    0.6506027    1.4666037    2.1286292   -4.5618339 
 3825000   0.96664543 -8.4004606e-05   0.49081014  0.042051864            0   0.44875827     1.425802    1.9166121   -3.8181023 
 3830000    0.8426232 5.6212283e-05   0.62889954  0.039661055            0   0.58923849    1.2428692    1.8717688    5.7091939 
 3835000    1.0800213 -3.8733581e-05   0.67568698  0.029993092            0   0.64569389    1.5930314    2.2687184  -0.37549413 
 3840000   0.94480383 -1.9023089e-05   0.48771427 0.0060965322            0   0.48161774    1.3935856    1.8812999   0.58265705 
 3845000    0.9975659 -9.9554063e-05     0.404288  0.037156962            0   0.36713104    1.4714097    1.8756977   -4.9205263 
 3850000    1.0777752 4.9677298e-05   0.53450441  0.014009528            0   0.52049488    1.5897184    2.1242229    5.5155264 
 3855000    0.9608043 5.6920193e-05   0.55948659  0.010382188            0    0.5491044    1.4171863    1.9766729    5.8624247 
 3860000    1.0931743 0.0001330511      0.43586 0.0041177758            0   0.43174223    1.6124321    2.0482921    11.131247 
 3865000   0.98160502 -9.4339715e-06   0.59280702  0.033090658            0   0.55971636    1.4478674    2.0406744    1.3966486 
 3870000    0.8107934 5.8174411e-06    0.8131575  0.017047657            0   0.79610985    1.1959203    2.0090778    2.4062151 
 3875000    1.0474654 6.7500865e-05   0.38441262  0.038818946            0   0.34559368    1.5450114     1.929424    6.5374831 
 3880000   0.96805278 -5.2692855e-05   0.55768233  0.014859933            0    0.5428224    1.4278779    1.9855602   -1.6116054 
 3885000   0.92517474 -8.2491097e-05   0.39307863 0.0088112201            0   0.38426741    1.3646327    1.7577114   -3.8736809 
 3890000    1.0718712 -2.2536456e-05   0.44301528  0.022171895            0   0.42084339      1.58101    2.0240253   0.48553659 
 3895000    1.1721805 -2.0066486e-05   0.59747374  0.070375599            0   0.52709814    1.7289662      2.32644   0.95656783 
 3900000    1.0261026 2.2774339e-05   0.51855192  0.035460408            0   0.48309151    1.5135013    2.0320532    3.5867814 
 3905000    1.1937862 2.9294143e-05   0.54195937  0.022041338            0   0.51991803    1.7608347    2.3027941    4.3026076 
 3910000    1.2013277 -1.9544084e-06   0.71348139 0.0082812936            0   0.70520009    1.7719583    2.4854397    2.3520188 
 3915000   0.88021238 3.9203862e-05   0.38550184  0.017163244            0    0.3683386    1.2983133    1.6838151    4.3601321 
 3920000   0.94628237 -2.489285e-05   0.58418273  0.034144845            0   0.55003788    1.3957665    1.9799492    0.2805973 
 3925000   0.99778242 1.5250501e-06   0.47883674 0.0068644977            0   0.47197224    1.4717291    1.9505658    2.0546759 
 3930000   0.76205343 4.0975646e-05   0.46053187  0.027718638            0   0.43281323    1.1240288    1.5845607    4.3818315 
 3935000    1.0635619 -0.00015908251   0.40554922  0.011818273            0   0.39373095    1.5687538     1.974303   -8.8857299 
 3940000    1.2572273 8.4450472e-05   0.27669849 0.0058237149            0   0.27087477    1.8544102    2.1311087    7.8962609 
 3945000    1.1827045 2.9904666e-05   0.47232189  0.049564756            0   0.42275714    1.7444891     2.216811    4.2583029 
 3950000    1.1068994 -1.5500931e-05   0.44860536 0.00074075094            0   0.44786461    1.6326767     2.081282    1.0230852 
 3955000    1.0094653 -6.4129936e-05   0.60162174 0.0037190607            0   0.59790268    1.4889614    2.0905831   -2.2873539 
 3960000   0.93891473 5.6894982e-05    0.6476141  0.024234802            0    0.6233793    1.3848992    2.0325133    5.9165441 
 3965000   0.92088258 4.8291733e-06   0.58759515  0.067278735            0   0.52031641    1.3583018     1.945897    2.2755685 
 3970000    0.9823736 -5.8675808e-05   0.64735393 0.0019720642            0   0.64538187    1.4490011     2.096355   -1.9092468 
 3975000    1.0117289 2.6801675e-05   0.74009563   0.02164872            0   0.71844691    1.4923002    2.2323958    4.0620569 
 3980000    1.0377419 -3.301979e-05   0.42766254  0.029335939            0   0.39832661    1.5306693    1.9583319  -0.29581913 
 3985000    1.0887978 -2.2880923e-05   0.47092152  0.018051587            0   0.45286993    1.6059767    2.0768982    0.5148939 
 3990000   0.94483836 -1.3626597e-05   0.47514133 0.0029227585            0   0.47221857    1.3936366    1.8687779   0.93853557 
 3995000    1.0006006 4.7906838e-05   0.46499055  0.015565943            0   0.44942461    1.4758859    1.9408765    5.2113166 
 4000000    1.0276868 7.2188689e-05   0.56296036  0.040911573            0   0.52204879     1.515838    2.0787983    7.0068795 
Loop time of 227.086 on 1 procs for 2000000 steps with 60 atoms

Performance: 760944.224 tau/day, 8807.225 timesteps/s
99.0% CPU use with 1 MPI tasks x no OpenMP threads

MPI task timing breakdown:
Section |  min time  |  avg time  |  max time  |%varavg| %total
---------------------------------------------------------------
Pair    | 0.79754    | 0.79754    | 0.79754    |   0.0 |  0.35
Bond    | 1.9563     | 1.9563     | 1.9563     |   0.0 |  0.86
Neigh   | 191.55     | 191.55     | 191.55     |   0.0 | 84.35
Comm    | 27.644     | 27.644     | 27.644     |   0.0 | 12.17
Output  | 0.042      | 0.042      | 0.042      |   0.0 |  0.02
Modify  | 4.4546     | 4.4546     | 4.4546     |   0.0 |  1.96
Other   |            | 0.6421     |            |       |  0.28

Nlocal:        60.0000 ave          60 max          60 min
Histogram: 1 0 0 0 0 0 0 0 0 0
Nghost:        0.00000 ave           0 max           0 min
Histogram: 1 0 0 0 0 0 0 0 0 0
Neighs:        19.0000 ave          19 max          19 min
Histogram: 1 0 0 0 0 0 0 0 0 0

Total # of neighbors = 19
Ave neighs/atom = 0.31666667
Ave special neighs/atom = 5.8000000
Neighbor list builds = 37854
Dangerous builds = 0
write_restart restart.rerun.1
System init for write_restart ...
WARNING: Communication cutoff 1.4200000000000002 is shorter than a bond length based estimate of 1.8. This may lead to errors. (../comm.cpp:667)
#--------------End of Input file ------------------
Total wall time: 0:03:47
