LAMMPS (29 Oct 2020)
###################### polyelectrolyte complexation ######################
clear

#Initialization
#------------------------------------
units				lj
dimension			3
atom_style			full
boundary			p p p

#Atom Definition
#-------------------------------------
read_data			data.complexation
Reading data file ...
  orthogonal box = (-80.000000 -80.000000 -80.000000) to (80.000000 80.000000 80.000000)
  1 by 1 by 1 MPI processor grid
  reading atoms ...
  120 atoms
  scanning bonds ...
  1 = max bonds/atom
  reading bonds ...
  119 bonds
Finding 1-2 1-3 1-4 neighbors ...
  special bond factors lj:    0.0      0.0      0.0     
  special bond factors coul:  0.0      0.0      0.0     
     2 = max # of 1-2 neighbors
     2 = max # of 1-3 neighbors
     4 = max # of 1-4 neighbors
     6 = max # of special neighbors
  special bonds CPU = 0.000 seconds
  read_data CPU = 0.002 seconds

#Force definition
#----------------------------------------------
#Bond definition
bond_style			harmonic
bond_coeff			1 5000 1
#Pair definition
special_bonds	lj 0 1 1
Finding 1-2 1-3 1-4 neighbors ...
  special bond factors lj:    0.0      1.0      1.0     
  special bond factors coul:  0.0      0.0      0.0     
     2 = max # of 1-2 neighbors
     2 = max # of 1-3 neighbors
     4 = max # of 1-4 neighbors
     6 = max # of special neighbors
  special bonds CPU = 0.000 seconds
pair_style		 lj/cut 1.12
pair_modify 		 shift yes
pair_coeff	1 1 1 1 1.12

#Timestep etc
#--------------------------------------------
timestep		1e-05
run_style		verlet
velocity		all	create	1	11

#Fix
#---------------------------------------
group polymers type 1
120 atoms in group polymers
fix 1 all nve
fix 2 all langevin 1	1	10	11
fix 3 polymers recenter INIT INIT INIT units box

#Dump
#------------------------------------------------
compute  1 all gyration
variable  myRg2 equal c_1
variable  i equal step
fix  mythermofile all print 5000 "$i ${myRg2}" file radius_of_gyration.dat screen no

thermo_style		 custom step temp press pe evdwl ecoul ebond ke etotal enthalpy
thermo 	5000
dump	3 all custom 5000 dump.lammpstrj id mol type xu yu zu
run		20000000
Neighbor list info ...
  update every 1 steps, delay 10 steps, check yes
  max neighbors/atom: 2000, page size: 100000
  master list distance cutoff = 1.42
  ghost atom cutoff = 1.42
  binsize = 0.71, bins = 226 226 226
  1 neighbor lists, perpetual/occasional/extra = 1 0 0
  (1) pair lj/cut, perpetual
      attributes: half, newton on
      pair build: half/bin/newton
      stencil: half/bin/3d/newton
      bin: standard
WARNING: Communication cutoff 1.4200000000000002 is shorter than a bond length based estimate of 1.8. This may lead to errors. (../comm.cpp:667)
Per MPI rank memory allocation (min/avg/max) = 54.72 | 54.72 | 54.72 Mbytes
Step Temp Press PotEng E_vdwl E_coul E_bond KinEng TotEng Enthalpy 
       0            1 2.9052734e-05            0            0            0            0       1.4875       1.4875    2.4791667 
    5000   0.82208928 -0.00042498301   0.25304371            0            0   0.25304371    1.2228578    1.4759015   -13.030185 
   10000   0.45518833 -0.0010704733   0.80435507            0            0   0.80435507   0.67709264    1.4814477   -35.057374 
   15000   0.71103969 -0.00056405912   0.43741733            0            0   0.43741733    1.0576715    1.4950889   -17.758129 
   20000   0.76732792 -0.00031479259   0.38522589            0            0   0.38522589    1.1414003    1.5266262   -9.2182943 
   25000   0.60949445 -0.00074136507   0.61476603            0            0   0.61476603   0.90662299     1.521389   -23.783872 
   30000   0.62979567 -0.00072630472   0.58850766            0            0   0.58850766   0.93682106    1.5253287   -23.265872 
   35000   0.80670174 -0.00028908042   0.32298571            0            0   0.32298571    1.1999688    1.5229545   -8.3443238 
   40000   0.74418948 -0.00030057201   0.43792963            0            0   0.43792963    1.1069819    1.5449115   -8.7146131 
   45000   0.66780933 -0.00055592125   0.56029672            0            0   0.56029672   0.99336637    1.5536631   -17.421782 
   50000   0.74061087 -0.00054143126   0.46095974            0            0   0.46095974    1.1016587    1.5626184   -16.918235 
   55000   0.79568975 -0.00027466338   0.35789813            0            0   0.35789813    1.1835885    1.5414866   -7.8336901 
   60000   0.77175841 -0.00027338074   0.40598342            0            0   0.40598342    1.1479906     1.553974   -7.7774219 
   65000   0.81329962 -0.00024330582   0.35325504            0            0   0.35325504    1.2097832    1.5630382   -6.7418004 
   70000    0.8153766 -0.00022542146   0.35293749            0            0   0.35293749    1.2128727    1.5658102   -6.1285755 
   75000   0.84689614 -0.00022985178   0.31654971            0            0   0.31654971     1.259758    1.5763077   -6.2692996 
   80000   0.85049435 -0.00014074859   0.31277574            0            0   0.31277574    1.2651104    1.5778861   -3.2263323 
   85000   0.82844099 -0.00016566259   0.34742297            0            0   0.34742297     1.232306    1.5797289   -4.0748876 
   90000   0.86224871 -0.00012730331   0.31178041            0            0   0.31178041     1.282595    1.5943754   -2.7509109 
   95000   0.86132991 -0.00014048284   0.30937873            0            0   0.30937873    1.2812282     1.590607   -3.2045405 
  100000   0.84696718 -0.00011391395    0.3055017            0            0    0.3055017    1.2598637    1.5653654   -2.3228975 
  105000    0.8502947 -7.2431727e-05   0.29540944            0            0   0.29540944    1.2648134    1.5602228  -0.91211347 
  110000   0.82805777 -3.1488808e-05   0.33286923            0            0   0.33286923    1.2317359    1.5646052   0.48978717 
  115000   0.82742911 -0.00010460218   0.32342235            0            0   0.32342235    1.2308008    1.5542231    -2.016198 
  120000   0.78771675 -2.2138593e-05   0.39147039            0            0   0.39147039    1.1717287     1.563199   0.80753505 
  125000   0.85661943 -5.8370406e-05   0.30735678            0            0   0.30735678    1.2742214    1.5815782  -0.41079834 
  130000   0.84644185 -7.761817e-05   0.31396113            0            0   0.31396113    1.2590823    1.5730434   -1.0763235 
  135000   0.88294418 9.8615844e-05   0.29138199            0            0   0.29138199    1.3133795    1.6047615    4.9708489 
  140000   0.85863589 -0.00013075956   0.33352509            0            0   0.33352509    1.2772209     1.610746   -2.8525137 
  145000   0.84379835 -3.6124222e-05   0.35298948            0            0   0.35298948      1.25515    1.6081395   0.37509942 
  150000   0.88840207 5.2018704e-05   0.29205873            0            0   0.29205873    1.3214981    1.6135568    3.3891286 
  155000   0.89317023 -5.3854876e-05   0.29418698            0            0   0.29418698    1.3285907    1.6227777  -0.21546873 
  160000   0.90445619 -0.00012108839   0.27944911            0            0   0.27944911    1.3453786    1.6248277   -2.5083226 
  165000   0.85813347 6.8807574e-05   0.34555572            0            0   0.34555572    1.2764735    1.6220293    3.9706611 
  170000   0.86582986 2.1458882e-05   0.34035925            0            0   0.34035925    1.2879219    1.6282812    2.3607443 
  175000   0.84688799 -0.00013589066   0.36247559            0            0   0.36247559    1.2597459    1.6222215   -3.0161799 
  180000   0.87907052 2.6417894e-06   0.31903335 0.00013988116            0   0.31889347    1.3076174    1.6266508    1.7168238 
  185000   0.92987587 5.955247e-05   0.23871257 0.0046727024            0   0.23403987    1.3831904    1.6219029    3.6546272 
  190000   0.88044929 -6.372344e-05   0.30737801 0.0077765574            0   0.29960146    1.3096683    1.6170463   -0.5580471 
  195000   0.87022033 -2.9002098e-05    0.3129128 0.00084964292            0   0.31206316    1.2944527    1.6073655   0.61742726 
  200000   0.87759257 8.7835727e-05   0.30021631            0            0   0.30021631     1.305419    1.6056353    4.6037614 
  205000    0.8418154 -9.869481e-05   0.36582762            0            0   0.36582762    1.2522004     1.618028   -1.7507548 
  210000   0.86800052 4.9018223e-06   0.30072579            0            0   0.30072579    1.2911508    1.5918766    1.7591921 
  215000   0.88314745 6.2304994e-05   0.29452902            0            0   0.29452902    1.3136818    1.6082109     3.734888 
  220000   0.90227795 -0.00021257079    0.2744931            0            0    0.2744931    1.3421385    1.6166316   -5.6391181 
  225000   0.87919714 0.00014112884   0.29563114            0            0   0.29563114    1.3078057    1.6034369    6.4206347 
  230000   0.85706777 -4.448253e-05   0.30499373            0            0   0.30499373    1.2748883     1.579882  0.061544992 
  235000   0.82196524 -0.00018170518   0.36578001            0            0   0.36578001    1.2226733    1.5884533     -4.61375 
  240000   0.89031678 6.2957634e-05    0.2830052            0            0    0.2830052    1.3243462    1.6073514    3.7563053 
  245000   0.86635901 4.3271186e-05    0.3163701            0            0    0.3163701     1.288709    1.6050791    3.0820689 
  250000   0.82025613 -0.0001540129   0.40841584            0            0   0.40841584     1.220131    1.6285468   -3.6284269 
  255000   0.88777696 3.701608e-05   0.30059928            0            0   0.30059928    1.3205682    1.6211675    2.8846497 
  260000   0.84211895 0.00018131122   0.33446498            0            0   0.33446498    1.2526519    1.5871169    7.7758732 
  265000   0.83468297 -0.00025690268   0.35207719            0            0   0.35207719    1.2415909    1.5936681   -7.1752768 
  270000   0.84206022 0.00015111558   0.34938054            0            0   0.34938054    1.2525646    1.6019451    6.7600236 
  275000   0.86176862 -4.7484707e-05   0.31692278            0            0   0.31692278    1.2818808    1.5988036 -0.022007725 
  280000   0.85336405 1.4281592e-05   0.33357611            0            0   0.33357611     1.269379    1.6029551    2.0904335 
  285000   0.81846786 -1.696058e-05   0.37513111            0            0   0.37513111    1.2174709    1.5926021    1.0136809 
  290000   0.86836563 -8.9034845e-05   0.29600689            0            0   0.29600689    1.2916939    1.5877008   -1.4513553 
  295000    0.8672278 8.0284188e-05   0.29845876            0            0   0.29845876    1.2900013    1.5884601    4.3288271 
  300000   0.82680552 -6.0281538e-06    0.3727245            0            0    0.3727245    1.2298732    1.6025977    1.3968367 
  305000   0.83929842 -0.00022447637    0.3420865            0            0    0.3420865    1.2484564    1.5905429   -6.0715838 
  310000   0.87574316 7.1624741e-05   0.27669082            0            0   0.27669082     1.302668    1.5793588    4.0241499 
  315000   0.80320954 -5.0021949e-05   0.36865815            0            0   0.36865815    1.1947742    1.5634323  -0.14398351 
  320000   0.82581719 -8.1752892e-05   0.33401573            0            0   0.33401573    1.2284031    1.5624188   -1.2280799 
  325000   0.84149236 -9.1559734e-05   0.31361848            0            0   0.31361848    1.2517199    1.5653384   -1.5599006 
  330000   0.81974848 0.0002285673   0.32984317            0            0   0.32984317    1.2193759     1.549219    9.3509829 
  335000    0.8064459 -0.00011975684   0.34494924            0            0   0.34494924    1.1995883    1.5445375   -2.5431627 
  340000   0.85209386 -0.00012642999   0.28348466            0            0   0.28348466    1.2674896    1.5509743   -2.7645027 
  345000   0.84704218 0.00022975791   0.32652313            0            0   0.32652313    1.2599752    1.5864984    9.4289016 
  350000   0.80067957 -0.00018532135   0.38829412            0            0   0.38829412    1.1910109     1.579305   -4.7463304 
  355000   0.87716254 0.00013090003    0.2735394            0            0    0.2735394    1.3047793    1.5783187    6.0463731 
  360000   0.82169841 8.5101916e-05   0.37268102            0            0   0.37268102    1.2222764    1.5949574    4.4997695 
  365000   0.83972084 -8.1557537e-05   0.33209465            0            0   0.33209465    1.2490848    1.5811794   -1.2026512 
  370000   0.84142114 -6.7941749e-05   0.32404565            0            0   0.32404565    1.2516139    1.5756596  -0.74341878 
  375000   0.83420139 0.00014824897   0.32580122            0            0   0.32580122    1.2408746    1.5666758    6.6269074 
  380000   0.81824198 -0.00021408308   0.36265912            0            0   0.36265912    1.2171349    1.5797941   -5.7275751 
  385000   0.81359282 4.6987275e-05   0.35455095            0            0   0.35455095    1.2102193    1.5647703    3.1686026 
  390000   0.85356698 -9.1457271e-05   0.29760831            0            0   0.29760831    1.2696809    1.5672892   -1.5544523 
  395000   0.82739744 8.3654605e-05   0.31946876            0            0   0.31946876    1.2307537    1.5502224     4.405633 
  400000   0.79779212 -3.2021817e-05   0.37006071            0            0   0.37006071    1.1867158    1.5567765   0.46376514 
  405000   0.78099361 -4.4025595e-05   0.38142605            0            0   0.38142605     1.161728     1.543154  0.040413741 
  410000   0.83636017 7.3070372e-05   0.30802903            0            0   0.30802903    1.2440858    1.5521148    4.0462502 
  415000   0.77721324 -0.00013637452   0.39492208            0            0   0.39492208    1.1561047    1.5510268   -3.1038903 
  420000    0.8128173 3.6198359e-07   0.35892911            0            0   0.35892911    1.2090657    1.5679948    1.5803506 
  425000   0.82201734 0.00011298163   0.34796067            0            0   0.34796067    1.2227508    1.5707115    5.4271511 
  430000   0.76274357 -0.00025881073   0.44274151            0            0   0.44274151    1.1345811    1.5773226   -7.2567505 
  435000   0.80312869 7.6578871e-05   0.37452273            0            0   0.37452273    1.1946539    1.5691767    4.1830688 
  440000    0.7788321 4.5434031e-06   0.38636878            0            0   0.38636878    1.1585127    1.5448815     1.699963 
  445000   0.79813692 -0.00017156182   0.36194481            0            0   0.36194481    1.1872287    1.5491735   -4.3068032 
  450000   0.79359021 2.9609967e-05   0.37448201            0            0   0.37448201    1.1804654    1.5549475    2.5656343 
  455000   0.80332959 4.472589e-05   0.36328338            0            0   0.36328338    1.1949528    1.5582362    3.0848799 
  460000   0.77986481 3.3263462e-05    0.3928029            0            0    0.3928029    1.1600489    1.5528518    2.6882447 
  465000   0.77549089 -0.00010433648   0.39379297 0.00044797771            0   0.39334499    1.1535427    1.5473357   -2.0140163 
  470000   0.79169812 0.00015313296     0.384674 0.0034327836            0   0.38124121     1.177651     1.562325    6.7892632 
  475000   0.77721788 -0.00013571614   0.39348314 0.0028939395            0    0.3905892    1.1561116    1.5495947   -3.0828494 
  480000   0.76794568 -6.2512745e-05   0.40826053 0.00095549543            0   0.40730504    1.1423192    1.5505797  -0.58318864 
  485000    0.7568209 5.6755384e-05   0.41896819            0            0   0.41896819    1.1257711    1.5447393    3.4819897 
  490000   0.75193477 -0.00021301728   0.44332553            0            0   0.44332553     1.118503    1.5618285   -5.7091612 
  495000   0.85299692 -0.00012987545   0.32690032            0            0   0.32690032    1.2688329    1.5957332   -2.8373488 
  500000   0.80349141 5.839457e-05   0.39749938            0            0   0.39749938    1.1951935    1.5926929    3.5858942 
  505000   0.80178793 -0.00013772787   0.40955782 0.00046129762            0   0.40909652    1.1926595    1.6022174   -3.0988938 
  510000    0.7997737 0.00016226523   0.40493704 0.0013519696            0   0.40358507    1.1896634    1.5946004    7.1332536 
  515000   0.82532294 3.7987394e-05   0.37034097 0.00089938232            0   0.36944159    1.2276679    1.5980088    2.8946452 
  520000    0.8297878 -6.820295e-06   0.37868977 6.1253686e-05            0   0.37862851    1.2343093    1.6129991    1.3801997 
  525000   0.89894067 6.7927247e-05   0.31954722            0            0   0.31954722    1.3371742    1.6567215    3.9753048 
  530000   0.82943767 7.1090005e-05     0.387916            0            0     0.387916    1.2337885    1.6217045    4.0482434 
  535000   0.80483014 -7.2257383e-05   0.42303539            0            0   0.42303539    1.1971848    1.6202202   -0.8461651 
  540000   0.82267291 -1.3359738e-05   0.39362544            0            0   0.39362544     1.223726    1.6173514     1.161339 
  545000   0.80784826 3.8054883e-05   0.39830306            0            0   0.39830306    1.2016743    1.5999773    2.8989174 
  550000   0.79799221 -0.00011228442   0.43411656 1.8136211e-05            0   0.43409843    1.1870134      1.62113   -2.2115116 
  555000   0.78173043 1.2378466e-05   0.46600323 0.0011202452            0   0.46488298     1.162824    1.6288272    2.0513456 
  560000   0.87360951 0.00010339103   0.33981963 0.0010282129            0   0.33879141    1.2994941    1.6393138    5.1683942 
  565000   0.83513798 -5.3241841e-06    0.4024637 0.0020231703            0   0.40044053    1.2422677    1.6447314    1.4629993 
  570000   0.83463483 0.00015670108   0.41726254 0.0024349858            0   0.41482755    1.2415193    1.6587818     7.007512 
  575000   0.82983254 -8.7476239e-05    0.4273962 0.0041749718            0   0.42322122    1.2343759    1.6617721   -1.3240835 
  580000   0.86067879 -4.4413769e-05   0.37404745  0.002304906            0   0.37174255    1.2802597    1.6543072   0.13831715 
  585000   0.82507318 -2.9790095e-06   0.44203342 0.0016720025            0   0.44036141    1.2272964    1.6693298    1.5676463 
  590000   0.84464937 -0.00010826664   0.42535086 0.0010473364            0   0.42430353    1.2564159    1.6817668   -2.0137346 
  595000   0.85072723 8.6719175e-05   0.42997105 0.00015003344            0   0.42982101    1.2654568    1.6954278    4.6554423 
  600000   0.85603248 -3.929857e-05   0.41526558 0.00028113882            0   0.41498444    1.2733483    1.6886139   0.34722272 
  605000    0.8543016 -1.8827459e-05   0.43337516 0.00018395384            0    0.4331912    1.2707736    1.7041488    1.0615049 
  610000   0.87492432 -0.00010266731   0.41368859 0.0002393814            0    0.4134492    1.3014499    1.7151385   -1.7892391 
  615000   0.88263218 0.00015984614   0.41990246 0.0020327953            0   0.41786967    1.3129154    1.7328178    7.1888995 
  620000     0.864577 -0.00022070039   0.44625714 0.0074210621            0   0.43883608    1.2860583    1.7323154   -5.8009245 
  625000   0.86020912 4.7673434e-05   0.45065104  0.007130284            0   0.44352076    1.2795611    1.7302121    3.3574653 
  630000   0.89916781 -0.00025287453   0.40782714 0.0037324261            0   0.40409471    1.3375121    1.7453393   -6.8861112 
  635000   0.92061454 2.5606067e-05   0.37759593  0.002668553            0   0.37492738    1.3694141    1.7470101    2.6210305 
  640000   0.85569284 7.1557928e-05   0.48757521 0.0008330962            0   0.48674212    1.2728431    1.7604183    4.2029289 
  645000   0.82793104 -0.0001600603    0.5240054 6.1544649e-05            0   0.52394385    1.2315474    1.7555528   -3.7078389 
  650000   0.85374681 6.9574659e-05   0.50562522            0            0   0.50562522    1.2699484    1.7755736    4.1503886 
  655000   0.87529074 -0.00021203919   0.47248911            0            0   0.47248911     1.301995    1.7744841   -5.4631203 
  660000   0.89433186 0.00012616251   0.45242148            0            0   0.45242148    1.3303186    1.7827401     6.089087 
  665000   0.93755727 -0.0001258593   0.36706233            0            0   0.36706233    1.3946164    1.7616788   -2.5343186 
  670000   0.87751097 2.7694187e-06   0.46416937            0            0   0.46416937    1.3052976    1.7694669    1.8639964 
  675000   0.84355151 -3.4292206e-06   0.53484664            0            0   0.53484664    1.2547829    1.7896295    1.6725788 
  680000   0.91130082 -7.3181199e-05   0.43338392 0.00051481057            0   0.43286911      1.35556    1.7889439  -0.70897437 
  685000   0.91807466 6.2811713e-05   0.41882276 0.00067823121            0   0.41814452    1.3656361    1.7844588    3.9284319 
  690000   0.91722353 7.503366e-06   0.41408941 0.00092020246            0   0.41316921      1.36437    1.7784594    2.0345743 
  695000   0.93993536 -5.1893999e-05   0.39540994 0.0069030566            0   0.38850688    1.3981538    1.7935638  0.022248608 
  700000   0.90040197 7.5360685e-06   0.47790489  0.013030754            0   0.46487414    1.3393479    1.8172528     2.074484 
  705000   0.92419671 -8.0054078e-05   0.44477825 0.0056575148            0   0.43912074    1.3747426    1.8195209  -0.91299166 
  710000   0.94064326 -8.8229622e-05   0.40282623 0.0017575635            0   0.40106867    1.3992068    1.8020331    -1.209538 
  715000   0.90507736 -1.4942833e-05   0.43217156 0.0055799156            0   0.42659164    1.3463026    1.7784741    1.2684254 
  720000   0.90527037 -7.2966604e-05    0.4523211  0.007240901            0    0.4450802    1.3465897    1.7989108  -0.69168263 
  725000   0.86622506 0.00014935504   0.52407956  0.022920479            0   0.50115908    1.2885098    1.8125893    6.9105748 
  730000   0.90971233 -7.2745184e-05   0.46059503 0.0075285614            0   0.45306647    1.3531971    1.8137921  -0.66924351 
  735000   0.96044002 -3.5019598e-05   0.38075476 0.0084800482            0   0.37227472    1.4286545    1.8094093   0.61407367 
  740000    0.9543372 0.00017165044   0.40089556 0.0038735166            0   0.39702204    1.4195766    1.8204721     7.679474 
  745000   0.91129303 -9.9162175e-05   0.47570863 3.7686209e-05            0   0.47567094    1.3555484     1.831257   -1.5534786 
  750000   0.94717253 0.00011277641   0.43418037            0            0   0.43418037    1.4089191    1.8430995    5.6925343 
  755000   0.96435473 5.4984327e-06    0.4203346            0            0    0.4203346    1.4344777    1.8548123    2.0424921 
  760000   0.98853006 -1.1846945e-05   0.38463197 7.5973951e-05            0     0.384556    1.4704385    1.8550704    1.4506947 
  765000    0.9631258 -5.2384461e-05   0.43321084 0.00022530523            0   0.43298553    1.4326496    1.8658605  0.077804176 
  770000   0.91598128 -0.00012335645   0.52271184 0.00010432726            0   0.52260751    1.3625222     1.885234   -2.3253328 
  775000   0.93832512 8.1568278e-05   0.49172783            0            0   0.49172783    1.3957586    1.8874865    4.6716837 
  780000   0.91741669 -0.00018987399   0.52715063 0.00016328141            0   0.52698734    1.3646573     1.891808   -4.5892243 
  785000   0.92433613 0.00023193333   0.50232576 0.0034816423            0   0.49884412      1.37495    1.8772758    9.7939333 
  790000   0.93585717 -7.2031077e-05   0.48206957 0.0057285651            0     0.476341    1.3920875    1.8741571  -0.58450364 
  795000   0.99399276 3.9909226e-05   0.39430188 0.0022104011            0   0.39209148    1.4785642    1.8728661     3.235101 
  800000   0.98620487 -5.0682669e-05   0.41234031  0.000109238            0   0.41223107    1.4669797    1.8793201    0.1493516 
  805000   0.98590624 2.1083686e-05   0.41764905 3.9408402e-06            0   0.41764511    1.4665355    1.8841846    2.6038411 
  810000    1.0359925 -9.2469008e-05   0.33797645 6.3549727e-06            0   0.33797009    1.5410388    1.8790152   -1.2772602 
  815000    1.0311512 3.844976e-06   0.37573564            0            0   0.37573564    1.5338373     1.909573    2.0408148 
  820000   0.98682114 6.4370414e-05   0.44387804            0            0   0.44387804    1.4678964    1.9117745    4.1089513 
  825000   0.98623471 1.3189403e-05   0.42929836            0            0   0.42929836    1.4670241    1.8963225    2.3465208 
  830000   0.99093693 5.7214016e-05   0.42593813 4.8732929e-06            0   0.42593325    1.4740187    1.8999568    3.8528619 
  835000   0.97545209 4.1267279e-05   0.45549988 0.00012929275            0   0.45537059     1.450985    1.9064849    3.3150747 
  840000   0.99850051 -1.0996703e-05   0.41672302 0.00016431124            0   0.41655871    1.4852695    1.9019925    1.5266384 
  845000   0.99824132 0.00027872345   0.44173479 6.7075535e-05            0   0.44166771     1.484884    1.9266188    11.440379 
  850000    1.0581463 1.8654366e-05   0.34954929 0.0025205231            0   0.34702877    1.5739926    1.9235419    2.5602776 
  855000   0.93023338 -2.9432864e-05   0.50829262  0.014281702            0   0.49401092    1.3837222    1.8920148   0.88737302 
  860000   0.96184249 -0.00014751331   0.47075692 0.0063260562            0   0.46443086    1.4307407    1.9014976   -3.1336234 
  865000   0.97149736 5.6067845e-05    0.4596817 0.0056815584            0   0.45400014    1.4451023     1.904784    3.8185665 
  870000    1.0073084 -7.7624879e-05    0.4056158 0.0075404857            0   0.39807531    1.4983713    1.9039871  -0.74560879 
  875000   0.97846578 -6.3240492e-05    0.4374038 0.0012943024            0    0.4361095    1.4554678    1.8928716  -0.26573713 
  880000    1.0319431 0.00010814136   0.36730097 0.0003247716            0    0.3669762    1.5350153    1.9023163    5.5935412 
  885000    1.0118693 -0.00023352957   0.39583746 0.00095490763            0   0.39488255    1.5051556    1.9009931   -6.0701497 
  890000      1.02444 0.00011991931   0.37238179 0.0032711614            0   0.36911063    1.5238544    1.8962362    5.9894821 
  895000   0.96426956 3.9414593e-05   0.45210487 0.0066418968            0   0.44546297     1.434351    1.8864558    3.2318073 
  900000    0.9491081 0.00012084563   0.49545331  0.018268819            0   0.47718449    1.4117983    1.9072516    6.0321158 
  905000   0.96001069 -6.8051472e-05   0.49250462 0.0077597129            0   0.48474491    1.4280159    1.9205205  -0.40230306 
  910000   0.98431669 0.00016739654   0.46130099 0.0014548409            0   0.45984615    1.4641711    1.9254721    7.6392739 
  915000   0.96948987 -0.00020801802   0.46996429 0.00045534613            0   0.46950895    1.4421162    1.9120805    -5.188268 
  920000   0.99739439 -8.35496e-05   0.41494052 0.0017459773            0   0.41319454    1.4836242    1.8985647  -0.95326168 
  925000    0.9398809 0.00013512417   0.48227991 0.0068268256            0   0.47545309    1.3980728    1.8803528    6.4925912 
  930000   0.94852742 -9.8695557e-05   0.47749116  0.011653456            0   0.46583771    1.4109345    1.8884257   -1.4803827 
  935000   0.96242033 8.4552836e-06   0.45250376 0.0062802631            0    0.4462235    1.4316002     1.884104     2.172711 
  940000   0.97281205 -0.00012362524   0.45644127 0.00038712639            0   0.45605415    1.4470579    1.9034992   -2.3162423 
  945000    1.0423795 0.0001121769   0.38874036  0.001075762            0    0.3876646    1.5505394    1.9392798    5.7682514 
  950000    0.9627807 -0.00012794337   0.50334371 0.0024393742            0   0.50090433    1.4321363      1.93548   -2.4316535 
  955000     1.027265 0.00018253374   0.41808452 0.0012474788            0   0.41683704    1.5280567    1.9461412    8.1766263 
  960000   0.99124919 -1.7997423e-05   0.46754557  0.001568269            0    0.4659773    1.4744832    1.9420287    1.3277167 
  965000    1.0462757 4.7681182e-05   0.40118717 0.0021747223            0   0.39901245    1.5563352    1.9575223      3.58504 
  970000   0.98194624 -0.00011474225   0.50983234 0.0015839421            0    0.5082484     1.460645    1.9704774   -1.9460582 
  975000   0.99058444 -0.00015365944   0.49399094 0.0018586971            0   0.49213224    1.4734944    1.9674853   -3.2774234 
  980000    1.0441353 9.4971473e-05    0.3929874 0.0044226335            0   0.38856477    1.5531512    1.9461386    5.1878316 
  985000   0.94300983 -0.00014408915   0.54728487 0.0019638649            0     0.545321    1.4027271     1.950012    -2.968231 
  990000   0.92246048 0.00015456144    0.5669843 0.0047085142            0   0.56227579      1.37216    1.9391443    7.2148414 
  995000    1.0582643 -0.00011054987   0.38769965 0.0058663589            0   0.38183329    1.5741682    1.9618678   -1.8115677 
 1000000    1.0248409 -4.7061975e-06   0.45381521 0.0016215218            0   0.45219369    1.5244509    1.9782661    1.8176279 
 1005000    1.0259457 -1.5624104e-05   0.45774879 0.00022565073            0   0.45752314    1.5260943    1.9838431    1.4505403 
 1010000    1.0006021 1.4045414e-05   0.50282337 0.0021858822            0   0.50063749    1.4883955    1.9912189    2.4706357 
 1015000    1.0038404 -8.5139864e-05   0.50746013  0.011841953            0   0.49561817    1.4932125    2.0006727   -0.9054347 
 1020000    1.0477795 -0.00018503536   0.44108694 0.0079730479            0    0.4331139     1.558572    1.9996589   -4.3162146 
 1025000    1.0923119 6.3703874e-05   0.38675384  0.018745943            0    0.3680079     1.624814    2.0115678    4.1859934 
 1030000    1.0503803 3.7613272e-06   0.43053074  0.044733554            0   0.38579718    1.5624408    1.9929715    2.1213581 
 1035000    1.0075155 5.3405264e-05   0.48661444 0.0092323952            0   0.47738205    1.4986793    1.9852938    3.8081935 
 1040000    1.0248317 0.00010061231   0.46421797 0.0015321678            0    0.4626858    1.5244371    1.9886551    5.4228885 
 1045000    1.0365961 0.00016182119   0.45801606 0.0002559778            0   0.45776008    1.5419367    1.9999528    7.5234494 
 1050000    1.0087428 -0.00014187183   0.51491684 0.0081902373            0    0.5067266     1.500505    2.0154218   -2.8271367 
 1055000    1.0728916  0.000158266   0.43365486  0.012543209            0   0.42111165    1.5959263    2.0295812    7.4317274 
 1060000    1.0893421 -9.203353e-05   0.41939559 0.0062721516            0   0.41312344    1.6203964     2.039792   -1.1016191 
 1065000     1.069448 -8.5625636e-06    0.4388374 0.0024142691            0   0.43642314    1.5908039    2.0296413    1.7373724 
 1070000   0.94892979 -4.8101411e-05   0.60760044  0.003994562            0   0.60360587    1.4115331    2.0191335     0.377272 
 1075000    1.0137207 -3.6034254e-05   0.49365355 0.0084672749            0   0.48518628    1.5079095     2.001563   0.77159382 
 1080000    1.0493075 -4.6200524e-05   0.43343015 0.0066089552            0   0.42682119    1.5608449     1.994275   0.41729711 
 1085000    1.0686187 3.1931736e-05   0.40096339   0.00272146            0   0.39824193    1.5895703    1.9905337    3.0804703 
 1090000    1.0337899 0.00016700075   0.43513451 0.00013672562            0   0.43499778    1.5377625     1.972897    7.6731894 
 1095000    1.0029527 -6.7078026e-05   0.47114416  0.002335436            0   0.46880872    1.4918922    1.9630363  -0.32656029 
 1100000   0.96898353 -5.4318181e-05   0.52808924 0.0034941962            0   0.52459504     1.441363    1.9694522   0.11539164 
 1105000    1.0055603 0.00015520563   0.47673082  0.001644354            0   0.47508647    1.4957709    1.9725017    7.2701874 
 1110000    0.9983513 8.8737443e-05   0.48528924 0.00045378708            0   0.48483546    1.4850476    1.9703368    4.9992415 
 1115000    1.0136535 -0.00017297532   0.48168496 0.0029512764            0   0.47873369    1.5078096    1.9894945   -3.9147298 
 1120000    1.0383523 -9.8541552e-05    0.4436878 0.0088993686            0   0.43478843    1.5445491    1.9882369   -1.3753148 
 1125000    1.0466559 -2.312095e-05   0.44136133  0.003082443            0   0.43827889    1.5569007    1.9982621    1.2090669 
 1130000    1.0206985 7.4857211e-05    0.4606489 0.0053301239            0   0.45531877    1.5182891     1.978938    4.5340641 
 1135000   0.99592394 -3.697259e-05   0.49245811  0.012158659            0   0.48029945    1.4814369     1.973895   0.71189722 
 1140000    1.0037154 2.5076045e-06    0.4709714 0.0079246209            0   0.46304678    1.4930267    1.9639981     2.049591 
 1145000   0.98939041 -4.572365e-05   0.48186591 0.00095083217            0   0.48091508    1.4717182    1.9535841   0.39288356 
 1150000    1.0038954 0.00014287595   0.47856276 0.0030468058            0   0.47551596    1.4932944    1.9718572    6.8486895 
 1155000    1.0667132 -6.5441936e-05   0.40060649 0.0038937948            0   0.39671269    1.5867358    1.9873423  -0.24640912 
 1160000    1.0265019 -0.00010984041   0.48964442 0.0070281568            0   0.48261626    1.5269216     2.016566   -1.7326533 
 1165000    1.0423403 -9.620568e-05   0.47162234 0.0076189294            0   0.46400341    1.5504812    2.0221035    -1.261717 
 1170000    1.0091265 -5.7501988e-06   0.51597129  0.014304292            0   0.50166699    1.5010757     2.017047    1.8207735 
 1175000   0.98565463 3.1354707e-05    0.5580335  0.023205688            0   0.53482782    1.4661613    2.0241948    3.0944354 
 1180000    1.0002646 -3.062658e-05   0.53352471 0.0094703174            0   0.52405439    1.4878936    2.0214183   0.97603107 
 1185000    1.0405886 -0.00015978442   0.48894895  0.016902892            0   0.47204606    1.5478755    2.0368244   -3.4171505 
 1190000    1.0549694 -4.8245756e-05   0.46579724  0.014473827            0   0.45132342     1.569267    2.0350642   0.38827579 
 1195000    1.0716595 5.4632568e-05    0.4430226 0.0014003852            0   0.44162221    1.5940935    2.0371161    3.9019078 
 1200000    1.0193542 -7.5905725e-05   0.52596274 0.00059960964            0   0.52536313    1.5162894    2.0422522  -0.54866324 
 1205000    1.0594874 8.6859032e-05   0.44200669 0.0047396274            0   0.43726707    1.5759875    2.0179941    4.9827824 
 1210000    1.0200219 0.00010917571    0.5259364 0.0086994455            0   0.51723696    1.5172826     2.043219    5.7697498 
 1215000    1.0535895 -0.00015885767   0.49686095  0.019200348            0    0.4776606    1.5672143    2.0640753   -3.3582665 
 1220000    1.0507692 5.1217669e-05   0.50409755  0.038655768            0   0.46544178    1.5630192    2.0671167    3.8153465 
 1225000   0.98006577 -0.00014792113   0.58757334 0.0051743265            0   0.58239902    1.4578478    2.0454212   -3.0036201 
 1230000   0.97639702 6.4794451e-05   0.57743192 0.0030832087            0   0.57434872    1.4523906    2.0298225    4.2414731 
 1235000   0.96575627 -2.4710028e-05   0.56977559  0.010801897            0   0.55897369    1.4365625     2.006338    1.1629024 
 1240000   0.93201528 0.00016680244   0.59138971  0.026601448            0   0.56478826    1.3863727    1.9777624    7.6712857 
 1245000   0.99845613 7.6155346e-05   0.52289759 0.0058155352            0   0.51708206    1.4852035    2.0081011    4.6075369 
 1250000   0.99828412 -3.0740802e-05   0.53863108            0            0   0.53863108    1.4849476    2.0235787   0.97429265 
 1255000    0.9787973 -0.0001600432   0.56931519            0            0   0.56931519     1.455961    2.0252762   -3.4375316 
 1260000    1.0573375 0.00018598561   0.45153048 0.0012244291            0   0.45030605    1.5727895      2.02432    8.3726288 
 1265000   0.98285697 -0.00025541358   0.57415858  0.013813574            0   0.56034501    1.4619997    2.0361583   -6.6819585 
 1270000    1.0171197 2.6166696e-05   0.50368372 0.0084595289            0   0.49522419    1.5129655    2.0166492    2.9098057 
 1275000    1.0370344 -3.5507964e-05   0.49912544  0.003251625            0   0.49587381    1.5425887    2.0417142   0.82970899 
 1280000     1.020603 0.00010578783    0.5268023 0.0028161861            0   0.52398612     1.518147    2.0449493    5.6558405 
 1285000     1.029865 4.842614e-06   0.51217753 0.0060994866            0   0.50607804    1.5319242    2.0441017    2.2093963 
 1290000   0.98254215 0.00011572099   0.58560502  0.010127761            0   0.57547726    1.4615315    2.0471365    5.9970797 
 1295000    1.0235517 0.00011836543    0.5317826  0.025671502            0    0.5061111    1.5225331    2.0543157    6.0945223 
 1300000    1.0317116 8.655199e-05   0.49447862   0.01213192            0    0.4823467    1.5346711    2.0291497    4.9834576 
 1305000    1.0218004 8.7046201e-05   0.50165673 0.0034134865            0   0.49824324    1.5199281    2.0215848    4.9927618 
 1310000   0.99941414 -4.0434054e-05   0.51309648  0.012389626            0   0.50070686    1.4866285     1.999725   0.61957596 
 1315000   0.95400095 0.00024888051   0.57961674   0.02859789            0   0.55101885    1.4190764    1.9986932    10.493815 
 1320000   0.93297298 -2.1429383e-05     0.611499  0.029566285            0   0.58193272    1.3877973    1.9992963      1.26784 
 1325000   0.98464001 0.00018017734   0.54437991 0.0074471949            0   0.53693271     1.464652    2.0090319     8.159085 
 1330000   0.93729421 -0.00015247941   0.61215288  0.025824099            0   0.58632878    1.3942251     2.006378   -3.1982526 
 1335000   0.99482111 4.6875034e-05   0.53297884  0.022172086            0   0.51080675    1.4797964    2.0127752    3.6127764 
 1340000    1.0041664 -8.9271091e-05   0.51571949  0.008448214            0   0.50727128    1.4936975     2.009417    -1.037703 
 1345000    1.0238538 0.00012235842   0.48886037 0.0083835097            0   0.48047686    1.5229825    2.0118429    6.1883436 
 1350000   0.98133099 -0.00010582272   0.56944141  0.015293461            0   0.55414795    1.4597298    2.0291713    -1.582911 
 1355000    1.0047656 -0.00013293286   0.55011611  0.010627032            0   0.53948907    1.4945888    2.0447049   -2.4927366 
 1360000   0.99824777 7.2945244e-06   0.54825648 0.0052380771            0   0.54301841    1.4848936      2.03315    2.2821365 
 1365000    1.0585907 1.1558711e-05   0.46449118  0.013796148            0   0.45069503    1.5746537    2.0391448    2.4336822 
 1370000   0.96013711 -0.00021308875   0.61470901 0.0035531494            0   0.61115586    1.4282039     2.042913   -5.2305163 
 1375000   0.98151486 -0.00014720585   0.58448859 4.1435468e-05            0   0.58444716    1.4600034     2.044492   -2.9801345 
 1380000   0.98734153 9.2864416e-05   0.55999958            0            0   0.55999958    1.4686705    2.0286701    5.1984422 
 1385000   0.95584602 -0.00023609957   0.60204555 0.00074143014            0   0.60130412     1.421821    2.0238665   -6.0349987 
 1390000   0.99747567 5.6134633e-05   0.55114273  0.041047935            0   0.51009479    1.4837451    2.0348878    3.9509499 
 1395000     1.012246 -3.9416542e-05   0.53367107  0.040619637            0   0.49305144    1.5057159    2.0393869   0.69396896 
 1400000    1.0045555 0.00011624671    0.5632049 0.0011128117            0   0.56209209    1.4942763    2.0574812    6.0253689 
 1405000     1.030671 -2.9787024e-05    0.5138551 0.00083829934            0    0.5130168     1.533123    2.0469781    1.0302477 
 1410000   0.97900501 9.3409343e-05   0.59377867 0.0018576515            0   0.59192102      1.45627    2.0500486    5.2384209 
 1415000    1.0097875 5.7268452e-05   0.53191388 0.0046749825            0    0.5272389    1.5020589    2.0339727    3.9887359 
 1420000    0.9662984 1.296943e-05   0.60067004 0.0057992842            0   0.59487075    1.4373689    2.0380389    2.4807288 
 1425000   0.98983443 0.00016665886   0.55965218  0.014807229            0   0.54484495    1.4723787    2.0320309    7.7206532 
 1430000   0.98544981 0.00010867198   0.54714567  0.035180096            0   0.51196558    1.4658566    2.0130023    5.7223393 
 1435000   0.97905217 1.5182557e-05   0.58011148  0.032881484            0      0.54723    1.4563401    2.0364516    2.5546828 
 1440000   0.99797422 0.00012881931   0.57544675  0.047582342            0    0.5278644    1.4844866    2.0599334    6.4569659 
 1445000    1.0605066 -0.0001370063   0.47970164  0.011905334            0   0.46779631    1.5775035    2.0572052   -2.6192767 
 1450000   0.99555973 -0.00029306488   0.56227425  0.024408913            0   0.53786533    1.4808951    2.0431693   -7.9601118 
 1455000   0.99567529 0.00012672043   0.55979121  0.022552248            0   0.53723896     1.481067    2.0408582    6.3662489 
 1460000    1.0381936 2.9818484e-05   0.47208399  0.014127556            0   0.45795643    1.5443129    2.0163969    3.0342011 
 1465000    1.0527956 -6.5830879e-05   0.48187608  0.017351674            0   0.46452441    1.5660334    2.0479095  -0.19911783 
 1470000    1.0355707 0.00014826315   0.52510933  0.020244555            0   0.50486477    1.5404115    2.0655208    7.1262364 
 1475000   0.99518025 -5.4449524e-05     0.598353 0.0017215568            0   0.59663144    1.4803306    2.0786836   0.22013985 
 1480000   0.99728348  0.000121466   0.56889812 0.0086462268            0   0.56025189    1.4834592    2.0523573    6.1983968 
 1485000    0.9737918 -5.9104933e-05   0.61277002  0.015866739            0   0.59690328    1.4485153    2.0612853  0.043836945 
 1490000   0.91004804 -0.00013527474   0.69959643 0.0038311871            0   0.69576524    1.3536965    2.0532929   -2.5640849 
 1495000   0.99627964 -3.4392466e-05   0.58550889 0.0019497451            0   0.58355914     1.481966    2.0674749   0.89354533 
 1500000    1.0281314  5.87627e-05   0.56733671 0.0068497024            0   0.56048701    1.5293454    2.0966821    4.1024489 
 1505000    1.0798709 -5.5786357e-05   0.49289839 0.0097432223            0   0.48315517    1.6063079    2.0992063     0.195032 
 1510000   0.97323758 0.00013068955   0.64418981  0.018686402            0   0.62550341    1.4476909    2.0918807    6.5527506 
 1515000    1.0067163 -6.1296424e-05   0.58672559  0.017971145            0   0.56875445    1.4974906    2.0842161 -0.0080351238 
 1520000    1.0447369 -4.8595388e-05   0.54136367 0.0047463721            0    0.5366173    1.5540462    2.0954099   0.43668729 
 1525000   0.97281736 -1.4455151e-05   0.61010189  0.013277956            0   0.59682393    1.4470658    2.0571677    1.5637652 
 1530000   0.99787075 -3.1768513e-05    0.5921181  0.020058944            0   0.57205915    1.4843327    2.0764508   0.99208558 
 1535000   0.95090678 -0.00012367847   0.65955101  0.028424276            0   0.63112674    1.4144738    2.0740248   -2.1475336 
 1540000   0.97622836 0.0001846791   0.60994566  0.013436839            0   0.59650882    1.4521397    2.0620854    8.3657985 
 1545000   0.96528267 -1.625882e-05   0.61546191   0.00526316            0   0.61019875     1.435858    2.0513199    1.4963522 
 1550000    1.0400811 6.2997507e-05   0.51405099 0.0017642108            0   0.51228678    1.5471207    2.0611717    4.2114866 
 1555000   0.99056757 -0.00017616819    0.5682558 0.0056303891            0   0.56262541    1.4734693    2.0417251   -3.9714825 
 1560000    1.0058974 -0.00012770618   0.54421548  0.011171377            0   0.53304411    1.4962724    2.0404879   -2.3185497 
 1565000   0.94194318 7.4846589e-05   0.63099814  0.015077403            0   0.61592074    1.4011405    2.0321386    4.5869022 
 1570000    1.0148039 -1.808767e-05   0.53138908  0.006790305            0   0.52459877    1.5095208    2.0409099    1.4235174 
 1575000    1.0025388 0.00014085366   0.56483699 0.0063320325            0   0.55850496    1.4912765    2.0561135    6.8639183 
 1580000    1.0130639 -5.5948908e-05   0.55388108   0.01213238            0    0.5417487    1.5069325    2.0608136   0.15109086 
 1585000    1.0213046 1.0068935e-05   0.54771745 0.0093636386            0   0.53835381    1.5191905     2.066908    2.4105943 
 1590000   0.95646832 2.8936539e-05   0.62208064  0.023047957            0   0.59903268    1.4227466    2.0448273    3.0325278 
 1595000    1.0074629 0.00013487625    0.5495398  0.010823549            0   0.53871625     1.498601    2.0481408    6.6519168 
 1600000   0.99386494 -7.5347877e-05   0.54435811  0.011137756            0   0.53322035    1.4783741    2.0227322  -0.54914199 
 1605000    1.0109978 3.3126872e-05   0.50354826 0.0079127265            0   0.49563553    1.5038592    2.0074075     3.138138 
 1610000   0.95716395 -6.2788662e-05   0.61153329  0.016190723            0   0.59534257    1.4237814    2.0353147  -0.10787168 
 1615000   0.96027103 -2.2008854e-05   0.60682833  0.010487056            0   0.59634128    1.4284032    2.0352315    1.2839959 
 1620000   0.99450588 -9.5009888e-05   0.57905411  0.016453777            0   0.56260033    1.4793275    2.0583816   -1.1846226 
 1625000    0.9418532 0.00010605503    0.6535602  0.015228586            0   0.63833161    1.4010066    2.0545668    5.6745785 
 1630000     1.024806 -0.00013676444   0.52247337  0.017579751            0   0.50489362     1.524399    2.0468724   -2.6213538 
 1635000   0.98954786 2.0338976e-05   0.55414012  0.014246709            0   0.53989341    1.4719524    2.0260926    2.7203296 
 1640000    0.9414949 -6.7756779e-05   0.59625561  0.002110514            0   0.59414509    1.4004737    1.9967293  -0.31603546 
 1645000   0.97300686 3.3512202e-06   0.54785523  0.003729702            0   0.54412553    1.4473477    1.9952029    2.1095912 
 1650000    1.0082511 -0.00012034909    0.5115327  0.017084243            0   0.49444846    1.4997735    2.0113062   -2.0966095 
 1655000   0.96402942 7.7444549e-05   0.57099301  0.022860131            0   0.54813288    1.4339938    2.0049868    4.6484274 
 1660000   0.95703066 6.7258304e-05   0.58669961 0.0063875303            0   0.58031208    1.4235831    2.0102827    4.3060328 
 1665000   0.97860283 -0.00013433964   0.54953248 0.0036187866            0    0.5459137    1.4556717    2.0052042   -2.5802554 
 1670000    0.9491513 -0.00019567311   0.56399964 0.0025639174            0   0.56143573    1.4118626    1.9758622   -4.7031133 
 1675000    1.0071973 -1.5084399e-05   0.50770769 0.0016500848            0    0.5060576    1.4982059    2.0059136    1.4910328 
 1680000    1.0495725 7.8220759e-05   0.46205283 0.0061793443            0   0.45587349    1.5612392     2.023292    4.6932272 
 1685000   0.95191662 0.00012097984   0.62825096 0.0034034221            0   0.62484754     1.415976    2.0442269    6.1736723 
 1690000   0.96510665 6.450565e-05   0.59809321 0.0022723739            0   0.59582084    1.4355961    2.0336894    4.2354822 
 1695000    1.0096139 4.6511813e-05   0.53640112  0.002750939            0   0.53365018    1.5018006    2.0382018     3.625805 
 1700000    1.0001456 -0.00022501033   0.53782993 0.0018176146            0   0.53601231    1.4877166    2.0255465   -5.6548062 
 1705000   0.93662036 2.6729908e-05   0.63493998 0.0012220059            0   0.63371797    1.3932228    2.0281628    2.9405436 
 1710000   0.96733111 -7.1893735e-05   0.58554356 0.00034119961            0   0.58520236     1.438905    2.0244486  -0.42952424 
 1715000   0.91281833 4.4480531e-05   0.64985915 0.0004181569            0     0.649441    1.3578173    2.0076764    3.5259452 
 1720000   0.96932996 -7.7167125e-05   0.55484522 0.0033046848            0   0.55154053    1.4418783    1.9967235  -0.63724766 
 1725000    1.0189399 0.00010975244   0.48836071 0.0066728081            0    0.4816879    1.5156731    2.0040339    5.7502505 
 1730000   0.92678971 5.1873298e-05    0.6188946 0.0087885038            0    0.6101061    1.3785997    1.9974943    3.7681029 
 1735000    1.0030218 4.3419379e-05   0.48078218  0.012289481            0    0.4684927     1.491995    1.9727772    3.4548253 
 1740000   0.91762115 -1.837859e-05    0.5995988  0.020251884            0   0.57934692    1.3649615    1.9645603    1.3372377 
 1745000   0.98813878 6.878614e-05    0.5121892 0.0096360936            0    0.5025531    1.4698564    1.9820456    4.3299459 
 1750000   0.93973642 5.1359349e-05   0.57058426 0.0099365783            0   0.56064768    1.3978579    1.9684422     3.721508 
 1755000   0.96620055 5.7060944e-05   0.54692959  0.014600304            0   0.53232929    1.4372233    1.9841529    3.9318331 
 1760000   0.96949098 -1.824201e-05   0.53473388  0.020433088            0   0.51430079    1.4421178    1.9768517    1.3541911 
 1765000   0.99266396 -8.2640152e-05   0.47264905  0.010312954            0    0.4623361    1.4765876    1.9492367  -0.87154716 
 1770000   0.91810615 0.00016924173    0.6093208 0.0047507409            0   0.60457005    1.3656829    1.9750037    7.7517881 
 1775000      0.88495 -2.168789e-05   0.65664642 0.0084464716            0   0.64819995    1.3163631    1.9730095    1.2327296 
 1780000   0.93945743 -3.629727e-05   0.56906355 0.0031967626            0   0.56586678    1.3974429    1.9665065   0.72755967 
 1785000   0.91875799 6.0173817e-05   0.60960127 0.0031976132            0   0.60640365    1.3666525    1.9762538    4.0301867 
 1790000   0.97653334 -0.0001078458   0.53749542 0.0066322519            0   0.53086316    1.4525933    1.9900888   -1.6910479 
 1795000    1.0024113 2.6150737e-05   0.50254923 0.0039194895            0   0.49862974    1.4910869    1.9936361     2.886248 
 1800000   0.96463982 0.00018063097   0.55353459 0.0044283599            0   0.54910623    1.4349017    1.9884363    8.1539733 
 1805000   0.89808012 -2.6734732e-06   0.63423669  0.013001553            0   0.62123514    1.3358942    1.9701309    1.8788763 
 1810000   0.93492603 -6.0331362e-05   0.58500656  0.028620754            0   0.55638581    1.3907025     1.975709 -0.083601454 
 1815000   0.85441721 -9.0586062e-05   0.69366193  0.015512445            0   0.67814948    1.2709456    1.9646075   -1.1273967 
 1820000   0.97729667 -0.00019448376   0.48706775 0.0082455917            0   0.47882216    1.4537288    1.9407965   -4.6975824 
 1825000   0.92264262 -2.5134001e-05   0.55885825  0.013455641            0   0.54540261    1.3724309    1.9312891    1.0733819 
 1830000   0.96939132 -7.3364055e-05   0.49306299  0.010531612            0   0.48253138    1.4419696    1.9350326  -0.56912714 
 1835000   0.92134912 -0.00018526499   0.57241232 0.0087168739            0   0.56369545    1.3705068    1.9429191   -4.3807926 
 1840000   0.94314316 0.00013670762   0.55134378 0.0095625288            0   0.54178126    1.4029254    1.9542692     6.620556 
 1845000   0.96665489 8.7386205e-05   0.51916605 0.0053656319            0   0.51380042    1.4378991    1.9570652    4.9398477 
 1850000   0.92845745 8.248465e-05   0.57368577  0.011557278            0   0.56212849    1.3810805    1.9547662    4.7702423 
 1855000   0.86185556 3.6952629e-05   0.67178276  0.019160567            0   0.65262219    1.2820101    1.9537929    3.2151093 
 1860000    0.9004503 -8.111487e-05   0.63430859 0.0085898765            0   0.62571872    1.3394198    1.9737284  -0.79499247 
 1865000   0.94509189 1.0656228e-05   0.55898671 0.0064426935            0   0.55254402    1.4058242    1.9648109    2.3285435 
 1870000   0.96876897 -1.5629559e-05   0.54364418 0.0091718871            0   0.53447229    1.4410438     1.984688    1.4511991 
 1875000    1.0102612 -5.4040728e-05   0.48559047  0.015531076            0   0.47005939    1.5027636    1.9883541   0.14376387 
 1880000   0.95487833 1.1219077e-05   0.57481009  0.010848598            0   0.56396149    1.4203815    1.9951916    2.3781361 
 1885000   0.89388614 -1.7508379e-05   0.66666522  0.026779329            0   0.63988589    1.3296556    1.9963209    1.3987015 
 1890000    1.0008115 -3.1682802e-05   0.51953259  0.018553057            0   0.50097953    1.4887071    2.0082396   0.92680001 
 1895000   0.98218324 0.00014603806   0.53857286  0.010491908            0   0.52808095    1.4609976    1.9995704    6.9843361 
 1900000   0.98899339 5.2633085e-05    0.5422564  0.012052813            0   0.53020359    1.4711277    2.0133841    3.8099267 
 1905000   0.98302198 -0.00012047863   0.55141322  0.012267324            0   0.53914589    1.4622452    2.0136584   -2.0986789 
 1910000   0.95385549 -6.9125677e-05    0.6062347  0.022348291            0   0.58388641      1.41886    2.0250947  -0.33439503 
 1915000   0.96377366 -2.1682658e-05   0.58889015  0.055111016            0   0.53377914    1.4336133    2.0225035    1.2824021 
 1920000   0.92665628 0.00014515961   0.64484333  0.018807885            0   0.62603544    1.3784012    2.0232445    6.9780261 
 1925000   0.95385379 4.3683574e-05   0.59926974  0.013984797            0   0.58528494    1.4188575    2.0181272    3.5091932 
 1930000    1.0235306 -4.4256713e-05   0.48919676 0.0091258008            0   0.48007096    1.5225017    2.0116985   0.50106931 
 1935000   0.90104643 -0.00011768854   0.68049848 0.0081354043            0   0.67236308    1.3403066    2.0208051   -1.9962971 
 1940000   0.95323079 -6.5423502e-05   0.60369276  0.016817932            0   0.58687483    1.4179308    2.0216236  -0.21149863 
 1945000   0.97790818 4.953092e-05   0.58116546  0.018676996            0   0.56248846    1.4546384    2.0358039    3.7264593 
 1950000   0.96750142 3.6959422e-05    0.6093291  0.010004008            0   0.59932509    1.4391584    2.0484875    3.3100357 
 1955000   0.98604659 6.0668997e-05   0.56809002 0.0084614856            0   0.55962853    1.4667443    2.0348343    4.1056694 
 1960000   0.94686408 3.4718368e-05   0.62065292  0.004507984            0   0.61614494    1.4084603    2.0291132    3.2141669 
 1965000   0.94841766 -7.0032413e-06   0.62328285 0.0080670921            0   0.61521576    1.4107713    2.0340541    1.7950102 
 1970000    1.0853649 0.00019466016   0.44627606 0.0097911746            0   0.43648489    1.6144804    2.0607564    8.7051565 
 1975000    1.0076851 -8.1395896e-05   0.56368569  0.012109142            0   0.55157654    1.4989316    2.0626173  -0.71569592 
 1980000   0.96348832 -0.00010988512   0.60558055  0.021553603            0   0.58402695    1.4331889    2.0387694    -1.711976 
 1985000   0.89852521 7.4557327e-05   0.68909692  0.012764924            0     0.676332    1.3365563    2.0256532    4.5705433 
 1990000   0.99117751 1.6820493e-05   0.57204718  0.020432282            0    0.5516149    1.4743765    2.0464237    2.6205632 
 1995000   0.98412827 -0.00015823645   0.55758818  0.026493827            0   0.53109435    1.4638908     2.021479   -3.3796586 
 2000000   0.99437511 2.5613831e-05   0.56147266  0.017800252            0   0.54367241     1.479133    2.0406056    2.9148911 
 2005000    1.0150816 -2.065147e-05   0.51238149   0.01144661            0   0.50093488    1.5099338    2.0223153    1.3174118 
 2010000   0.98996061 4.8926064e-05   0.55021681 0.0029855651            0   0.54723124    1.4725664    2.0227832    3.6927929 
 2015000   0.91600176 0.00024317093   0.69092461  0.017266398            0   0.67365821    1.3625526    2.0534772    10.353712 
 2020000   0.97008526 0.00011977268   0.61839439  0.040530058            0   0.57786433    1.4430018    2.0613962    6.1496372 
 2025000    1.0189147 -2.3520147e-05   0.55906384  0.035003313            0   0.52406052    1.5156356    2.0746994    1.2718784 
 2030000   0.99324278 2.6181997e-06   0.60753919   0.01125831            0   0.59628088    1.4774486    2.0849878    2.1743557 
 2035000   0.98123392 3.1572636e-05   0.62053411  0.024663974            0   0.59587014    1.4595855    2.0801196    3.1577989 
 2040000    0.9965045 0.00019410641   0.57737142  0.035640016            0   0.54173141    1.4823004    2.0596719    8.6851706 
 2045000    0.9801548 0.00018094901   0.58399629  0.019735346            0   0.56426094    1.4579803    2.0419766    8.2183696 
 2050000   0.99615202 8.4873116e-05    0.5737563 0.0065476158            0   0.56720869    1.4817761    2.0555324    4.9525348 
 2055000    1.0800237 -0.00014009236   0.46019265 0.0011557597            0   0.45903689    1.6065352    2.0667278   -2.7150914 
 2060000    1.0108607 -9.14744e-05   0.54872712 0.0030512486            0   0.54567587    1.5036554    2.0523825   -1.0699437 
 2065000    1.0646034 9.3924211e-05   0.47105953  0.012242697            0   0.45881684    1.5835975    2.0546571    5.2606035 
 2070000    1.0049434 -0.00016480711   0.58238943  0.011845021            0   0.57054441    1.4948533    2.0772427   -3.5481733 
 2075000    1.0487844 7.1240071e-05   0.48954652  0.017124001            0   0.47242252    1.5600668    2.0496134    4.4812744 
 2080000    1.0118276 4.7645449e-05   0.51696619 0.0089320797            0   0.50803411    1.5050935    2.0220597    3.6483577 
 2085000   0.96496068 2.2626737e-05   0.59609313 0.0010162529            0   0.59507688     1.435379    2.0314721    2.8037981 
 2090000     1.027781 -2.7397925e-05   0.47605819 0.0085517066            0   0.46750649    1.5288242    2.0048824    1.0696999 
 2095000   0.99541845 -8.078517e-05    0.5252026  0.038231778            0   0.48697082    1.4806849    2.0058875  -0.75157958 
 2100000    1.0415126 7.3923354e-05   0.46847717  0.029813705            0   0.43866347      1.54925    2.0177271    4.5409776 
 2105000    1.0293565 -3.2716323e-06   0.48540905  0.021444895            0   0.46396416    1.5311678    2.0165769    1.9049052 
 2110000   0.98963639 -4.8342766e-06   0.53695871  0.013018607            0    0.5239401    1.4720841    2.0090428    1.8440329 
 2115000    0.9754244 5.0820298e-05   0.56180782  0.005927818            0      0.55588    1.4509438    2.0127516    3.7474178 
 2120000    1.0398113 1.0922752e-05   0.47040807 0.0045620063            0   0.46584607    1.5467193    2.0171274    2.3899573 
 2125000    1.0077257 -9.4530922e-05   0.50843686  0.013517733            0   0.49491913     1.498992    2.0074289   -1.2192266 
 2130000    1.0098689 4.388895e-05   0.47912501  0.004215266            0   0.47490974    1.5021799    1.9813049    3.4793811 
 2135000    1.0205313 2.022861e-05   0.47632624 0.0077131455            0   0.46861309    1.5180403    1.9943665    2.6848364 
 2140000    1.0032953 -1.1910768e-05   0.49203006  0.012451149            0   0.47957891    1.4924018    1.9844318    1.5778776 
 2145000   0.97594367 3.1081909e-05   0.54281062 0.0053765653            0   0.53743406    1.4517162    1.9945268     3.055456 
 2150000     1.034524 -8.4428892e-05   0.48175132 0.0019599196            0    0.4797914    1.5388545    2.0206058  -0.86123372 
 2155000    1.0176493 -0.00013729774   0.49322871 0.0041463769            0   0.48908233    1.5137534    2.0069821   -2.6794475 
 2160000   0.96569865 2.6118636e-05   0.54472829 0.0036395218            0   0.54108876    1.4364767     1.981205    2.8727211 
 2165000    1.0681484 -6.5827889e-05   0.40742317  0.005724488            0   0.40169868    1.5888708     1.996294  -0.25063134 
 2170000    0.9863046 -5.0270702e-05   0.50926538  0.011539377            0     0.497726    1.4671281    1.9763935   0.26048684 
 2175000   0.98982145 6.9628298e-05   0.50479891 0.0088166141            0   0.49598229    1.4723594    1.9771583    4.3538042 
 2180000   0.99248242 -0.00016487316   0.50375175  0.010331944            0    0.4934198    1.4763176    1.9800693   -3.6476011 
 2185000    1.0061815 -7.0013067e-05   0.51371476  0.016000398            0   0.49771436    1.4966949    2.0104097  -0.37936965 
 2190000    1.0933195 7.6605574e-05    0.4063794 0.0080920852            0   0.39828732    1.6263128    2.0326922    4.6474958 
 2195000   0.99596567 7.4172896e-05   0.57149847  0.010503571            0    0.5609949    1.4814989    2.0529974    4.5847656 
 2200000    1.0460777 0.00016028743   0.51363078  0.033690854            0   0.47993992    1.5560406    2.0696713    7.5408156 
 2205000    1.0167354 2.3903907e-05   0.56329773  0.041438069            0   0.52185967     1.512394    2.0756917    2.8916117 
 2210000    1.0908875 -4.8363387e-05   0.48662643  0.022467461            0   0.46415897    1.6226952    2.1093216     0.458518 
 2215000    1.0551996 5.031535e-05   0.53010123  0.016943872            0   0.51315735    1.5696094    2.0997107    3.8171413 
 2220000    1.0610151 -1.1775804e-06    0.5139973  0.010497982            0   0.50349931      1.57826    2.0922573    2.0520626 
 2225000    1.0689002 -4.6447152e-05   0.51099327  0.015040395            0   0.49595287     1.589989    2.1009823   0.51558618 
 2230000    1.0016188 6.9474043e-05   0.60812265  0.011244206            0   0.59687845    1.4899079    2.0980305    4.4694112 
 2235000    1.0787168 9.9263239e-05   0.49129833 0.0046287763            0   0.48666955    1.6045912    2.0958895    5.4840748 
 2240000    1.0391001 -4.5257021e-05    0.5475076  0.020616387            0   0.52689122    1.5456614     2.093169   0.54839603 
 2245000    1.0947199 -2.9283502e-05   0.47203262  0.035572745            0   0.43645988    1.6283958    2.1004284    1.1008849 
 2250000    1.0477061 -3.2996511e-05   0.53871914  0.026835129            0   0.51188401    1.5584628     2.097182   0.97090107 
 2255000    1.0818063 -4.8402682e-05   0.50824184  0.036674724            0   0.47156712    1.6091869    2.1174288    0.4652839 
 2260000    1.0625804 3.5405749e-05   0.50653739  0.016240274            0   0.49029711    1.5805883    2.0871257    3.2956419 
 2265000   0.99870153 4.0409357e-05   0.58296483   0.01903648            0   0.56392835    1.4855685    2.0685334    3.4478394 
 2270000    1.0090537 0.00011438061   0.54265042  0.027745751            0   0.51490467    1.5009674    2.0436179    5.9478093 
 2275000    1.0530216 4.0589265e-05   0.51157502    0.0199243            0   0.49165072    1.5663696    2.0779446    3.4633915 
 2280000    1.1093568 -3.7289847e-05   0.40835497   0.01032983            0   0.39802514    1.6501682    2.0585232   0.78569637 
 2285000    1.0128177 4.8252367e-05   0.52275113  0.014892848            0   0.50785828    1.5065663    2.0293175    3.6763316 
 2290000    1.0505095 -4.5480062e-05   0.47650067 0.0098267138            0   0.46667396    1.5626329    2.0391336   0.48674748 
 2295000      1.06933 -6.4151068e-05   0.42987916 0.0093371331            0   0.42054202    1.5906284    2.0205075  -0.16918227 
 2300000    1.0493413 8.4427815e-05   0.47896461 0.0099006264            0   0.46906398    1.5608952    2.0398598    4.9216625 
 2305000     1.016162 7.961512e-05   0.52029093 0.0042634708            0   0.51602746     1.511541    2.0318319    4.7493614 
 2310000    1.0144717 -5.8051172e-05   0.52219709  0.012154871            0   0.51004222    1.5090266    2.0312237  0.049743682 
 2315000    1.0252441 -0.00011649781   0.50555933  0.033787952            0   0.47177138    1.5250506    2.0306099   -1.9458486 
 2320000    1.0398609 8.9078328e-06   0.47710916   0.01842418            0   0.45868498     1.546793    2.0239022    2.3279562 
 2325000   0.95163792 -6.7101116e-06   0.61401459  0.031238424            0   0.58277616    1.4155614     2.029576    1.8005375 
 2330000    1.0059753 0.00013409576   0.51465554  0.019022312            0   0.49563323    1.4963882    2.0110437    6.5881789 
 2335000    1.0826127 1.8796976e-05   0.40921951  0.010135005            0    0.3990845    1.6103864    2.0196059    2.6612093 
 2340000   0.95574931 -0.00028671453   0.58592411  0.019954996            0   0.56596912    1.4216771    2.0076012   -7.7789215 
 2345000   0.96674762 -8.8944534e-05   0.55233916  0.013272681            0   0.53906648    1.4380371    1.9903762   -1.0455972 
 2350000   0.96274685 4.8215611e-05   0.55331639  0.010663506            0   0.54265288    1.4320859    1.9854023    3.6311619 
 2355000   0.96244952 2.1779458e-06   0.54748546  0.030365823            0   0.51711964    1.4316437    1.9791291    2.0534697 
 2360000   0.98509058 5.9828733e-05   0.50879322  0.021337103            0   0.48745611    1.4653222    1.9741155    4.0162695 
 2365000   0.99467901 -8.953245e-05   0.48609002  0.008675455            0   0.47741457     1.479585     1.965675   -1.0903659 
 2370000    0.9546423 -4.6995666e-05   0.52449809 0.0055048302            0   0.51899326    1.4200304    1.9445285   0.34040976 
 2375000   0.95584388 3.2354959e-05   0.51213248  0.007319948            0   0.50481253    1.4218178    1.9339502    3.0383329 
 2380000     1.008642 1.021264e-05   0.43849622  0.018709596            0   0.41978662    1.5003549    1.9388512    2.2874426 
 2385000   0.98142742 3.2078747e-05   0.46903296  0.013476094            0   0.45555686    1.4598733    1.9289063    3.0238608 
 2390000   0.97277585 -2.84949e-05   0.49008728  0.010880717            0   0.47920656    1.4470041    1.9370914   0.96446544 
 2395000   0.93355239 3.8892576e-05   0.54471983  0.010317006            0   0.53440283    1.3886592     1.933379    3.2609123 
 2400000   0.96641933 0.00017525479   0.48207749   0.02558872            0   0.45648877    1.4375488    1.9196262    7.9016563 
 2405000   0.98402929 0.00012541833   0.45191066  0.025453295            0   0.42645737    1.4637436    1.9156542    6.1965999 
 2410000    0.9488089 7.3746447e-05   0.50172441   0.02297382            0   0.47875059    1.4113532    1.9130776    4.4302897 
 2415000    0.9922629 -2.5311275e-05   0.41513722  0.026982911            0   0.38815431    1.4759911    1.8911283    1.0271701 
 2420000   0.94180035 -7.7711624e-05   0.50925474  0.015288739            0     0.493966     1.400928    1.9101828    -0.742374 
 2425000   0.99096655 -4.6882576e-05   0.46292435 0.0055406396            0   0.45738371    1.4740627    1.9369871   0.33672851 
 2430000   0.94367405 -9.1932774e-05   0.52424092  0.020133601            0   0.50410732    1.4037152    1.9279561    -1.210016 
 2435000   0.96101062 -0.00014151167   0.47378667 0.0044496992            0   0.46933697    1.4295033      1.90329    -2.926975 
 2440000   0.98121154 -4.0345588e-05   0.43454173 6.9355589e-05            0   0.43447237    1.4595522    1.8940939    0.5169645 
 2445000   0.95297503 0.00018331766   0.46499837 0.00092332193            0   0.46407504    1.4175504    1.8825487    8.1397916 
 2450000   0.96039112 5.3896153e-05    0.4867994 0.0079111623            0   0.47888824    1.4285818    1.9153812    3.7550366 
 2455000   0.95832423 7.5832477e-05   0.48279715  0.023655612            0   0.45914154    1.4255073    1.9083044    4.4967197 
 2460000   0.94043047 -6.1515953e-05   0.51403999  0.026153784            0   0.48788621    1.3988903    1.9129303  -0.18681421 
 2465000   0.99630151 -5.3869248e-05   0.44917269 0.0086873688            0   0.44048532    1.4819985    1.9311712  0.092434169 
 2470000   0.98501785 1.1832692e-05     0.467208 0.0099226292            0   0.45728537     1.465214    1.9324221    2.3363113 
 2475000   0.94746092 5.5732842e-05    0.5168894  0.013180307            0   0.50370909    1.4093481    1.9262375    3.8285852 
 2480000   0.95472884 -3.0316136e-05   0.49991923  0.023990056            0   0.47592918    1.4201592    1.9200784    0.8852876 
 2485000   0.99114437 -0.00012510837   0.45419811  0.041135047            0   0.41306306    1.4743272    1.9285254   -2.3418405 
 2490000   0.95544101 -4.3691248e-06   0.52078799  0.039856667            0   0.48093133    1.4212185    1.9420065    1.7928737 
 2495000   0.91934469 -0.00014182992   0.57470649  0.034270636            0   0.54043586    1.3675252    1.9422317   -2.8988963 
 2500000   0.99302997 6.816054e-05   0.45843601   0.04357325            0   0.41486276    1.4771321    1.9355681    4.2621145 
 2505000   0.94239513 5.2505099e-05   0.51931461  0.037985381            0   0.48132923    1.4018128    1.9211274    3.7133014 
 2510000    1.0427092 3.9605758e-05   0.38719712  0.011365066            0   0.37583206      1.55103    1.9382271    3.2901037 
 2515000   0.98386592 -5.1566879e-05   0.48980646 0.0028626524            0   0.48694381    1.4635006     1.953307   0.19315753 
 2520000    1.0105551 -0.00014693701   0.44634914 0.0042401299            0   0.44210901    1.5032007    1.9495498   -3.0659002 
 2525000   0.94571377 1.875124e-05    0.5342759  0.031787901            0     0.502488    1.4067492    1.9410251    2.5810675 
 2530000   0.97859381 -4.427631e-05   0.48469603  0.024921302            0   0.45977473    1.4556583    1.9403543   0.42905627 
 2535000   0.99864325 6.5997083e-05   0.46027923  0.012015465            0   0.44826376    1.4854818    1.9457611    4.1984615 
 2540000    0.9358041 4.7993952e-08   0.53528777  0.054106029            0   0.48118174    1.3920086    1.9272964    1.9289346 
 2545000   0.95924836 -3.7534689e-05   0.49195728  0.011696759            0   0.48026052    1.4268819    1.9188392   0.63765517 
 2550000   0.95354801 0.0001399985   0.52285001 0.0062275549            0   0.51662245    1.4184027    1.9412527    6.7198682 
 2555000    1.0153115 5.8329502e-05   0.42988988 0.0086589932            0   0.42123088    1.5102759    1.9401658    3.9311461 
 2560000   0.93988077 -4.0999407e-05   0.54852748  0.021912025            0   0.52661545    1.3980726    1.9466001    0.5471537 
 2565000    0.9796421 -9.509603e-05   0.51334608  0.043613285            0    0.4697328    1.4572176    1.9705637   -1.2753808 
 2570000   0.97076897 -9.0068139e-05   0.53006235  0.024898886            0   0.50516346    1.4440188    1.9740812   -1.1002446 
 2575000    1.0344118 -4.720206e-05   0.43944645 0.0082639531            0    0.4311825    1.5386875    1.9781339   0.36697029 
 2580000    1.0050107 5.0818805e-05   0.49999432  0.009370559            0   0.49062376    1.4949534    1.9949477    3.7295629 
 2585000    1.0660536 0.00010271479   0.41770111 0.0064665709            0   0.41123454    1.5857548    2.0034559    5.5094541 
 2590000    1.0258918 -5.9620293e-05   0.47366898  0.012107022            0   0.46156195    1.5260141     1.999683  -0.03535631 
 2595000    1.0403399 2.8189431e-05   0.47278933  0.018640744            0   0.45414859    1.5475056     2.020295    2.9824942 
 2600000    1.0549431 0.00013345376   0.46897915  0.050705605            0   0.41827355    1.5692279    2.0382071    6.5934289 
 2605000    1.0023854 -0.00013114561   0.55056375  0.048230193            0   0.50233355    1.4910483     2.041612   -2.4348249 
 2610000   0.99965644 -0.00019479845   0.54559217  0.032870115            0   0.51272206     1.486989    2.0325811   -4.6165393 
 2615000    1.0426737 2.1609897e-05   0.51194642  0.019952049            0   0.49199438    1.5509772    2.0629236    2.8005414 
 2620000    1.0813192 2.0475442e-05   0.44093858  0.017179716            0   0.42375887    1.6084623    2.0494009     2.748296 
 2625000    1.0741597 1.7947872e-05   0.46564199  0.013778366            0   0.45186362    1.5978125    2.0634545    2.6760752 
 2630000    1.0003931 -9.3121075e-05   0.54861434  0.004758266            0   0.54385608    1.4880848    2.0366991   -1.1418336 
 2635000    1.0722788 -0.00011104811   0.43717356  0.005801883            0   0.43137168    1.5950148    2.0321883   -1.7582538 
 2640000    1.0164302 5.3582458e-06   0.50349505  0.037503895            0   0.46599115      1.51194     2.015435    2.1983298 
 2645000    1.0161635 9.8300566e-06   0.51142056  0.023489922            0   0.48793064    1.5115432    2.0229637    2.3584963 
 2650000    1.0737207 3.660932e-05   0.42927319 0.0047072926            0    0.4245659    1.5971596    2.0264328    3.2760309 
 2655000    1.0065083 3.4976212e-06   0.51675832 0.0037661419            0   0.51299218    1.4971811    2.0139394    2.1333249 
 2660000    1.0401513 -3.4843159e-05   0.47365817  0.025472462            0   0.44818571     1.547225    2.0208832      0.83157 
 2665000    1.0258085 8.6990397e-05   0.51324212  0.031804457            0   0.48143767    1.5258901    2.0391322    5.0084044 
 2670000    1.0125199 6.0498678e-05   0.50618555  0.040501681            0   0.46568387    1.5061233    2.0123089    4.0773304 
 2675000    1.0247683 -8.1438015e-06   0.49522811  0.038337864            0   0.45689025    1.5243429     2.019571    1.7415959 
 2680000    1.0264393 6.5131583e-05   0.50599155  0.041532839            0   0.46445871    1.5268285      2.03282    4.2559781 
 2685000    1.0335851 3.6245002e-05   0.47973766 0.0095307282            0   0.47020693    1.5374578    2.0171954    3.2543582 
 2690000    1.0256139 -2.0883786e-05    0.4868813 0.0028655555            0   0.48401574    1.5256007     2.012482    1.2996488 
 2695000    1.0018428 1.8177246e-06   0.51987215 0.0023428069            0   0.51752934    1.4902411    2.0101133    2.0721583 
 2700000    1.0285989 6.0380805e-06   0.48678339 0.0058644339            0   0.48091896    1.5300408    2.0168242     2.222924 
 2705000    1.0218294 7.7160188e-05   0.49169403  0.011227831            0    0.4804662    1.5199713    2.0116653    4.6453997 
 2710000    1.0620612 0.00012024506   0.43702366 0.0052132481            0   0.43181041     1.579816    2.0168397    6.1212044 
 2715000    1.0716267 -2.8249135e-05   0.44222874 0.0039428191            0   0.43828592    1.5940447    2.0362735    1.0720363 
 2720000     1.063898 -0.00014193424   0.45830147 0.0026554949            0   0.45564598    1.5825483    2.0408498   -2.8038389 
 2725000     1.034865 -6.158839e-05   0.49425454  0.028662476            0   0.46559206    1.5393617    2.0336162 -0.068600837 
 2730000    1.0557424 -6.7608267e-05   0.47385529  0.015697159            0   0.45815814    1.5704168    2.0442721  -0.26342342 
 2735000    1.0487672 -0.00019220688   0.48810704 0.00075360451            0   0.48735344    1.5600413    2.0481483   -4.5125133 
 2740000    1.0730143 -7.2477525e-07   0.43345263 0.0083150226            0    0.4251376    1.5961087    2.0295614    2.0048224 
 2745000    1.0281607 0.00016705906   0.49674273  0.018723752            0   0.47801897     1.529389    2.0261317    7.7284144 
 2750000    1.0897013 4.4710985e-06   0.43478632 0.0096780197            0    0.4251083    1.6209306     2.055717    2.2083305 
 2755000    1.0245723 -0.00020723486   0.52106223  0.027871068            0   0.49319116    1.5240512    2.0451135    -5.028503 
 2760000    1.0681832 -0.00016335553   0.42683986   0.01905119            0   0.40778867    1.5889225    2.0157624   -3.5601064 
 2765000    1.0864559 1.2472456e-05    0.3951101 0.0083508827            0   0.38675922    1.6161032    2.0112133    2.4369398 
 2770000    1.0121516 9.0182425e-05   0.48884001  0.029700717            0    0.4591393    1.5055755    1.9944155    5.0726422 
 2775000   0.98949838 4.8306069e-05   0.50293927  0.077987554            0   0.42495171    1.4718788    1.9748181    3.6236653 
 2780000    1.0071623 7.6334429e-05   0.47766752  0.032920135            0   0.44474738     1.498154    1.9758215      4.58137 
 2785000   0.96687244 3.9628634e-05   0.54497873  0.021778171            0   0.52320056    1.4382228    1.9832015    3.3358589 
 2790000    1.0204622 -0.00010307888   0.46071689  0.010705961            0   0.45001093    1.5179375    1.9786544   -1.5397714 
 2795000   0.97438692 -4.3588194e-05     0.525963  0.027856652            0   0.49810635    1.4494005    1.9753635   0.48755321 
 2800000    1.0366106 4.0975729e-05   0.44688797 0.0083179103            0   0.43857006    1.5419582    1.9888462    3.3874844 
 2805000   0.96207324 -4.8232539e-05   0.56237209  0.029642821            0   0.53272927    1.4310839     1.993456   0.34711872 
 2810000   0.93756674 -0.00010225136   0.57630771   0.03947117            0   0.53683654    1.3946305    1.9709382   -1.5192414 
 2815000    1.0124814 5.0086168e-05   0.48029793  0.023892042            0   0.45640589    1.5060661     1.986364    3.6959719 
 2820000    1.0310646 4.6276354e-05   0.46860427  0.011983636            0   0.45662064    1.5337086    2.0023129    3.5818791 
 2825000    1.0331157 -4.3022326e-05   0.45723155 0.0073434076            0   0.44988814    1.5367596    1.9939912   0.52549579 
 2830000    1.0676531 -0.00010849675   0.41958844 0.0039375006            0   0.41565094    1.5881339    2.0077224   -1.6956335 
 2835000    1.0252349 -7.904032e-05   0.48464855 0.00058194274            0   0.48406661    1.5250369    2.0096854  -0.68822413 
 2840000   0.99631935 3.589426e-06   0.51566676  0.006594708            0   0.50907206     1.482025    1.9976918    2.1202109 
 2845000    1.0277848 -4.5289763e-05   0.45357514  0.010673205            0   0.44290193    1.5288299    1.9824051   0.43651449 
 2850000    1.0079948 -3.2559689e-05   0.48306574  0.022758757            0   0.46030698    1.4993923     1.982458   0.87108731 
 2855000     1.009757 -4.0413722e-05   0.47348239  0.012317231            0   0.46116516    1.5020135    1.9754959   0.59604089 
 2860000    1.0802716 0.00015477478   0.37273838  0.012137985            0   0.36060039     1.606904    1.9796423    7.2626216 
 2865000   0.99819596 -4.9088433e-06   0.48199428  0.022325221            0   0.45966906    1.4848165    1.9668108    1.7992556 
 2870000    1.0043955 -0.00014385549   0.49058304  0.014376416            0   0.47620662    1.4940384    1.9846214    -2.925646 
 2875000     1.012392 2.5481241e-05   0.48538821 0.0061942284            0   0.47919399    1.5059331    1.9913213     2.861081 
 2880000    0.9905366 7.2176903e-05   0.49229278 0.0058006959            0   0.48649209    1.4734232     1.965716    4.4293543 
 2885000   0.97269474 9.4878286e-05   0.50611267  0.014490202            0   0.49162247    1.4468834    1.9529961    5.1915083 
 2890000   0.92857626 -8.8200872e-06   0.56819782  0.033041639            0   0.53515618    1.3812572     1.949455     1.648396 
 2895000    0.9694342 -7.1154174e-05   0.51115698  0.014879727            0   0.49627725    1.4420334    1.9531904  -0.47553879 
 2900000    1.0471795 -4.8397219e-05   0.40744805  0.006868275            0   0.40057978    1.5576795    1.9651276   0.31316914 
 2905000    1.0093616 -1.1873566e-05   0.46183915 0.0086401367            0   0.45319901    1.5014254    1.9632646    1.5579802 
 2910000    1.0338072 2.8496599e-05   0.43988818  0.026217046            0   0.41367113    1.5377882    1.9776763    2.9503603 
 2915000    0.9695393 2.662621e-05    0.5336457  0.038376684            0   0.49526901    1.4421897    1.9758354    2.8846767 
 2920000   0.96643083 -0.00012535182   0.52519626 0.0095519232            0   0.51564433    1.4375659    1.9627621   -2.3159134 
 2925000   0.95953228 -2.5186794e-05   0.55677298  0.033544409            0   0.52322857    1.4273043    1.9840772     1.124368 
 2930000    1.0278722 4.4719785e-05   0.44109487  0.013413598            0   0.42768127    1.5289599    1.9700548    3.4964901 
 2935000   0.98659971 0.00011992743   0.49184146  0.024119604            0   0.46772185    1.4675671    1.9594085    6.0529314 
 2940000   0.97384835 9.0603154e-05   0.52413391  0.040146527            0   0.48398738    1.4485994    1.9727333     5.065321 
 2945000    0.9805197 6.5863328e-05   0.51148489   0.04092492            0   0.47055997    1.4585231     1.970008    4.2181429 
 2950000    0.9858213 3.5926066e-05   0.47652546  0.030114463            0     0.446411    1.4664092    1.9429347     3.169211 
 2955000   0.99348968 1.9324102e-05   0.44685759 0.0059361747            0   0.44092142    1.4778159    1.9246735    2.5842695 
 2960000    1.0177978 1.2134652e-05   0.39329368 0.0056515526            0   0.38764212    1.5139742    1.9072679     2.321464 
 2965000   0.94544354 4.1468001e-05    0.4893261   0.02056522            0   0.46876088    1.4063473    1.8956734    3.3111144 
 2970000    0.9793626 -3.4482074e-05   0.43562538 0.0032919923            0   0.43233339    1.4568019    1.8924272   0.71543911 
 2975000   0.96227815 5.4078489e-06   0.46642025 0.0058646219            0   0.46055563    1.4313887     1.897809    2.0823969 
 2980000   0.97333072 9.5452706e-05    0.4673143  0.026151787            0   0.44116251    1.4478294    1.9151437    5.1732628 
 2985000   0.92211733 6.8864852e-05   0.54475696  0.060760087            0   0.48399687    1.3716495    1.9164065    4.2669934 
 2990000   0.96445387 9.5750984e-05   0.47761837  0.023850318            0   0.45376806    1.4346251    1.9122435    5.1805438 
 2995000    1.0019898 8.524238e-05   0.42268646  0.026449658            0   0.39623681    1.4904598    1.9131463    4.8227529 
 3000000   0.95135151 -1.4310285e-06   0.50388151  0.023073802            0   0.48080771    1.4151354    1.9190169    1.8701711 
 3005000    0.9695615 -8.3730826e-05   0.46749952 0.0054121171            0    0.4620874    1.4422227    1.9097222  -0.94828994 
 3010000   0.94955564 -5.91184e-05   0.49131313 0.0065202784            0   0.48479286     1.412464    1.9037772  -0.11413091 
 3015000   0.96571879 -1.5820301e-05   0.42914465  0.011036384            0   0.41810827    1.4365067    1.8656513    1.3256517 
 3020000   0.94242208 -2.8043894e-05   0.48479849 0.0078636836            0    0.4769348    1.4018528    1.8866513   0.92941976 
 3025000   0.94528432 -0.00016275005   0.46619582 0.0058889192            0    0.4603069    1.4061104    1.8723062   -3.6828956 
 3030000   0.93800803 7.6522518e-05   0.46771834   0.01398335            0   0.45373499    1.3952869    1.8630053    4.4749739 
 3035000   0.94076445 0.00012605757   0.49513574  0.019081826            0   0.47605391    1.3993871    1.8945229    6.1972879 
 3040000   0.95677081 5.4189662e-05   0.46834211  0.007239235            0   0.46110287    1.4231966    1.8915387    3.7412125 
 3045000    1.0070418 4.8473274e-05   0.42795649  0.017379192            0   0.41057729    1.4979747    1.9259312    3.5804857 
 3050000   0.95453114 0.00012926133    0.4951177  0.018173862            0   0.47694384    1.4198651    1.9149828    6.3271029 
 3055000   0.92746972 -1.7466151e-05   0.51611672 0.0091167571            0   0.50699996    1.3796112    1.8957279      1.29955 
 3060000    1.0095893 9.602392e-05    0.3895226  0.024827015            0   0.36469559    1.5017641    1.8912867    5.1689032 
 3065000    0.9580902 7.6858378e-05   0.47635206  0.012937888            0   0.46341418    1.4251592    1.9015112    4.5249439 
 3070000   0.95250627 -5.809776e-06   0.47746842 0.0096524926            0   0.46781593    1.4168531    1.8943215    1.6960145 
 3075000   0.99086033 -0.00016126262   0.41398768  0.012698159            0   0.40128952    1.4739047    1.8878924   -3.6165383 
 3080000    0.9495506 -2.8760015e-05   0.47929603  0.010274613            0   0.46902141    1.4124565    1.8917525   0.91007736 
 3085000   0.94846637 -9.8009851e-05    0.4552718 0.0029557775            0   0.45231603    1.4108437    1.8661155   -1.4792874 
 3090000   0.96342118 6.8101629e-05   0.44388527 0.0024636513            0   0.44142162     1.433089    1.8769743    4.2015099 
 3095000    0.9738487 6.0782332e-05    0.4373266 0.0090594587            0   0.42826715    1.4485999    1.8859266    3.9606302 
 3100000   0.95856091 1.4966009e-06   0.47192217  0.012536437            0   0.45938574    1.4258594    1.8977815    1.9488655 
 3105000   0.93773513 8.8531601e-05   0.50920519 0.0063979333            0   0.50280725     1.394881    1.9040862    4.9259649 
 3110000   0.95709563 -1.1405491e-05   0.50505012 0.0034137141            0   0.50163641    1.4236798    1.9287299    1.5394225 
 3115000     1.020043 7.3123413e-05   0.43268924 0.0052389895            0   0.42745025     1.517314    1.9500032     4.445949 
 3120000    0.9697487 -2.5470836e-05   0.50872818   0.01045402            0   0.49827416    1.4425012    1.9512294    1.0818248 
 3125000   0.96129047 -8.4464641e-05    0.5141809 0.0084935424            0   0.50568736    1.4299196    1.9441005  -0.93895925 
 3130000    1.0057687 -6.5661616e-05   0.46219781  0.002866854            0   0.45933096    1.4960809    1.9582788  -0.28297108 
 3135000   0.99376368 -2.9789138e-05   0.47844989 0.0084909576            0   0.46995893    1.4782235    1.9566734   0.93987078 
 3140000    1.0065903 -0.00018612837   0.45753914 0.0063375553            0   0.45120158     1.497303    1.9548422   -4.3983397 
 3145000   0.96789663 -4.2286355e-05   0.49722706 0.0016717898            0   0.49555527    1.4397462    1.9369733   0.49359903 
 3150000   0.99419408 0.00012912631   0.46382769 0.0025423535            0   0.46128533    1.4788637    1.9426914    6.3502026 
 3155000    1.0273976 -3.5684049e-05    0.4225285  0.010385775            0   0.41214272     1.528254    1.9507825   0.73276692 
 3160000   0.97931974 6.1679433e-05   0.47781978  0.011624727            0   0.46619505    1.4567381    1.9345579    4.0398825 
 3165000   0.96646998 9.2771201e-05   0.52595774  0.020782182            0   0.50517556    1.4376241    1.9635818    5.1301722 
 3170000   0.97227693 3.4132697e-06   0.50179961 0.0088655481            0   0.49293406    1.4462619    1.9480615    2.0645678 
 3175000    1.0355042 9.468608e-05   0.41867544 0.0091345184            0   0.40954093    1.5403125    1.9589879    5.1909394 
 3180000    1.0158155 1.222887e-05   0.43087585 0.0043088216            0   0.42656703    1.5110255    1.9419014    2.3593135 
 3185000   0.92206841 -8.8145256e-05   0.58267747  0.011862819            0   0.57081465    1.3715768    1.9542542   -1.0544372 
 3190000   0.97393035 -9.7916342e-06   0.50673202  0.020812848            0   0.48591917    1.4487214    1.9554534    1.6212323 
 3195000    1.0305971 0.00011218413   0.42407564   0.00777521            0   0.41630043    1.5330132    1.9570888    5.7863071 
 3200000   0.99910432 9.4928602e-05   0.48180601 0.0068285361            0   0.47497748    1.4861677    1.9679737    5.2082033 
 3205000   0.94428669 -5.4785189e-05   0.57129404  0.020796192            0   0.55049785    1.4046265    1.9759205   0.10591937 
 3210000    1.0047443 1.3003615e-06   0.48972725  0.014389263            0   0.47533798    1.4945572    1.9842844    2.0286701 
 3215000    1.0387989 0.00018840311   0.45883811 0.0025396667            0   0.45629844    1.5452134    2.0040515    8.4348777 
 3220000    1.0465286 -5.351882e-05   0.47064693  0.007002207            0   0.46364472    1.5567113    2.0273582   0.20058246 
 3225000    1.0443463 -1.1828697e-05   0.49219725 0.0063458049            0   0.48585145    1.5534651    2.0456623    1.6419095 
 3230000   0.97083243 8.2015539e-05   0.58295509  0.008572063            0   0.57438302    1.4441132    2.0270683     4.826532 
 3235000    1.0479917 4.2495547e-05   0.46343361  0.019055363            0   0.44437825    1.5588877    2.0223213     3.472836 
 3240000    1.0041915 0.00017623572   0.51401712  0.021955949            0   0.49206117    1.4937349     2.007752    8.0232645 
 3245000    1.0041015 0.00013810692   0.52187713   0.01282797            0   0.50904916     1.493601    2.0154781    6.7295275 
 3250000   0.98674844 -0.00010601487    0.5135882  0.017575512            0   0.49601269    1.4677883    1.9813765   -1.6372645 
 3255000   0.96869121 5.4430552e-05   0.53942774  0.011551633            0    0.5278761    1.4409282    1.9803559    3.8382521 
 3260000   0.94005696 -0.00015113409   0.54760386 0.0017574843            0   0.54584637    1.3983347    1.9459386   -3.2127717 
 3265000   0.96011517 -0.00010718542   0.49984465 0.00044809463            0   0.49939656    1.4281713     1.928016   -1.7305796 
 3270000   0.93010713 -4.417075e-05   0.53757947 0.0035153512            0   0.53406411    1.3835344    1.9211138    0.4134189 
 3275000   0.95659902 3.2535944e-05   0.49321443 0.0038463729            0   0.48936805     1.422941    1.9161555    3.0267157 
 3280000   0.93738098 -0.00013510219   0.52793581 0.0077433462            0   0.52019246    1.3943542      1.92229   -2.6891981 
 3285000   0.92841315 -0.00014301345   0.53528614  0.018342772            0   0.51694337    1.3810146    1.9163007   -2.9652251 
 3290000   0.93340812 -4.3620168e-06    0.5150227   0.02242495            0   0.49259775    1.3884446    1.9034673    1.7545771 
 3295000   0.92633803 8.3845663e-05   0.51219862  0.007006972            0   0.50519164    1.3779278    1.8901264    4.7520584 
 3300000   0.91744115 -0.00013242425   0.52333363 0.0071270277            0    0.5162066    1.3646937    1.8880273   -2.6320539 
 3305000   0.94258923 -6.1833125e-05   0.50312999  0.016684084            0    0.4864459    1.4021015    1.9052315   -0.2053392 
 3310000   0.93608451 -0.00013380234   0.47726946 0.0094366869            0   0.46783278    1.3924257    1.8696952   -2.6974248 
 3315000   0.92980558 3.543453e-05   0.48132001  0.028429424            0   0.45289059    1.3830858    1.8644058    3.0739044 
 3320000   0.91609781 0.00018874105   0.49153646 0.0066249494            0   0.48491151    1.3626955     1.854232    8.2965931 
 3325000   0.91938944 9.5213753e-05   0.47023354 0.0082224258            0   0.46201111    1.3675918    1.8378253    5.0877881 
 3330000   0.93919909 -4.0996677e-06   0.42240498 0.0090092971            0   0.41339569    1.3970586    1.8194636    1.6795283 
 3335000   0.92559883 -1.7294252e-05   0.44079049  0.014691438            0   0.42609906    1.3768283    1.8176188    1.2273083 
 3340000    0.8717723 -0.00017424791   0.51041732  0.022712455            0   0.48770486    1.2967613    1.8071786   -4.1404834 
 3345000     0.975544 -2.0936979e-05   0.37570509    0.0136881            0   0.36201699    1.4511217    1.8268268    1.1121779 
 3350000   0.91281337 0.00016988352   0.47964993  0.011842718            0   0.46780721    1.3578099    1.8374598    7.6361507 
 3355000   0.92014659 -4.4024057e-05    0.4780957  0.018673659            0   0.45942204    1.3687181    1.8468138   0.34412594 
 3360000   0.90876877 -4.9462902e-05   0.50722729  0.024627363            0   0.48259992    1.3517936    1.8590208   0.17068712 
 3365000   0.95222071 8.1918618e-05   0.45857032  0.026007696            0   0.43256262    1.4164283    1.8749986    4.6711541 
 3370000   0.90991295 -2.1272122e-06   0.51110016 0.0017504934            0   0.50934967    1.3534955    1.8645957    1.7919868 
 3375000   0.91729476 0.00011793418   0.50164279 0.0082240777            0   0.49341871     1.364476    1.8661187    5.8916053 
 3380000   0.92924809 4.3968491e-05   0.46876716  0.012738417            0   0.45602874    1.3822565    1.8510237    3.3518149 
 3385000   0.94890218 -2.2794747e-05   0.44629814  0.020160533            0   0.42613761     1.411492    1.8577901    1.0797294 
 3390000    0.8624467 0.00010818361   0.55409718  0.041264971            0   0.51283221    1.2828895    1.8369866    5.5296537 
 3395000   0.91301262 -1.1591049e-05    0.4819061   0.01784139            0   0.46406471    1.3581063    1.8400124    1.4443712 
 3400000   0.92493984 -2.8114417e-06   0.45622791  0.012456464            0   0.44377144     1.375848    1.8320759     1.736112 
 3405000   0.87201961 0.0001604371   0.54630819  0.013436047            0   0.53287214    1.2971292    1.8434374    7.3196903 
 3410000   0.90519558 -8.4798905e-05   0.52337677  0.012916157            0   0.51046061    1.3464784    1.8698552   -1.0246141 
 3415000   0.92683987 -7.926288e-05   0.50469184 0.0054217693            0   0.49927007    1.3786743    1.8833662  -0.82214014 
 3420000   0.89764629 -9.5082443e-05   0.57858208  0.008386371            0   0.57019571    1.3352489    1.9138309   -1.3316498 
 3425000   0.98714614 -5.0540785e-05   0.46415962  0.010436732            0   0.45372289    1.4683799    1.9325395   0.20741403 
 3430000   0.98045246 3.0579752e-05   0.46901333  0.018982474            0   0.45003086     1.458423    1.9274364    2.9712252 
 3435000   0.94963033 2.6411416e-05   0.52808598  0.034725307            0   0.49336067    1.4125751    1.9406611    2.8421708 
 3440000   0.98068952    2.567e-05   0.50160926  0.016824174            0   0.48478508    1.4587757    1.9603849    2.8365876 
 3445000    1.0053938 -0.00014355238   0.48441113  0.011685451            0   0.47272568    1.4955233    1.9799344   -2.9199867 
 3450000    1.0156814 -5.2614016e-05   0.46839552 0.0084814446            0   0.45991408    1.5108262    1.9792217   0.18332992 
 3455000    1.0324266 -2.0487249e-05   0.45600967 0.00014639121            0   0.45586328    1.5357346    1.9917443    1.2924462 
 3460000   0.99696217 2.5242741e-05   0.51136742 0.0026000583            0   0.50876736    1.4829812    1.9943486    2.8559675 
 3465000   0.94831289 5.6515241e-05   0.57050604  0.033159885            0   0.53734615    1.4106154    1.9811215     3.910175 
 3470000   0.93959603 0.00011023659   0.54926277  0.029182193            0   0.52008058    1.3976491    1.9469119    5.7096542 
 3475000   0.94407115 5.1867579e-06   0.53485849  0.012190311            0   0.52266818    1.4043058    1.9391643    2.1162057 
 3480000   0.96461708 -3.3008416e-05   0.50542037  0.014840667            0    0.4905797    1.4348679    1.9402883     0.813601 
 3485000    1.0476275 -5.7274084e-05   0.36407324 0.0048057111            0   0.35926753    1.5583459    1.9224191 -0.032536263 
 3490000   0.91798734 2.4408716e-05   0.54389397  0.024057366            0   0.51983661    1.3655062    1.9094001     2.742551 
 3495000   0.96387009 8.0934017e-05   0.44487886  0.051771646            0   0.39310721    1.4337568    1.8786356    4.6411834 
 3500000   0.95568668 -5.3733987e-05   0.44729811  0.013095995            0   0.43420212    1.4215839    1.8688821  0.034761951 
 3505000   0.90009991 -0.0001277135   0.51532465  0.022405591            0   0.49291906    1.3388986    1.8542233   -2.5050641 
 3510000   0.90180995 0.00015695944   0.51369943  0.034299615            0   0.47939981    1.3414423    1.8551417    7.2126907 
 3515000   0.99245965 8.9663753e-05   0.41850989  0.016177645            0   0.40233225    1.4762837    1.8947936    4.9553164 
 3520000   0.91700073 3.0242256e-05   0.53605012  0.017333448            0   0.51871667    1.3640386    1.9000887    2.9323577 
 3525000   0.91627129 4.5890068e-05   0.50478783  0.040007343            0   0.46478048    1.3629535    1.8677414    3.4341223 
 3530000   0.92276538 3.071225e-05   0.49522313  0.011873371            0   0.48334975    1.3726135    1.8678366    2.9161481 
 3535000   0.94141498 -0.00011122524   0.46341558 0.0056431956            0   0.45777238    1.4003548    1.8637704   -1.9327178 
 3540000   0.92699558 1.5088415e-05   0.49893143  0.013139067            0   0.48579236    1.3789059    1.8778374    2.3928553 
 3545000   0.88627559 -6.7521719e-06   0.55909082  0.053305078            0   0.50578574    1.3183349    1.8774258    1.6469516 
 3550000   0.90232133 -8.569512e-05   0.54789128  0.045446384            0   0.50244489     1.342203    1.8900943   -1.0349658 
 3555000   0.90152477 -9.2816578e-06   0.54815612  0.020059772            0   0.52809635    1.3410181    1.8891742    1.5723603 
 3560000   0.94290474 -6.8562503e-05   0.49287861  0.023879591            0   0.46899902    1.4025708    1.8954494  -0.44481736 
 3565000   0.92175339 1.1591224e-05   0.48775245   0.01316572            0   0.47458673    1.3711082    1.8588606    2.2545077 
 3570000   0.88653883 -9.1341644e-05   0.54601714 0.0046237842            0   0.54139335    1.3187265    1.8647436   -1.2530511 
 3575000   0.93594125 -6.9046977e-05   0.48152153 0.0071239674            0   0.47439757    1.3922126    1.8737342  -0.48306933 
 3580000    0.8933876 -0.00018414456   0.55021547  0.013128911            0   0.53708656    1.3289141    1.8791295   -4.4063381 
 3585000   0.86891236 -9.4314134e-05   0.60800198   0.04124828            0    0.5667537    1.2925071    1.9005091   -1.3187466 
 3590000    0.9706334 -6.5333917e-05   0.47206321  0.032025891            0   0.44003732    1.4438172    1.9158804  -0.31418396 
 3595000   0.93808369 0.00018151613   0.51571303  0.024625291            0   0.49108774    1.3953995    1.9111125     8.106863 
 3600000   0.90459577 6.0076316e-05   0.57864884  0.016049054            0   0.56259978    1.3455862     1.924235      3.97484 
 3605000   0.95089255 1.3679506e-06   0.52498667  0.012244265            0    0.5127424    1.4144527    1.9394393    1.9861321 
 3610000    1.0061768 1.4756301e-05   0.46662343  0.011562199            0   0.45506123    1.4966879    1.9633114    2.4669931 
 3615000   0.95586457 -5.7457555e-05   0.54815668  0.011413809            0   0.53674287    1.4218485    1.9700052 0.0087873586 
 3620000   0.93308024 1.763378e-05   0.58993408 0.0078912625            0   0.58204282    1.3879569    1.9778909    2.5797906 
 3625000    1.0354458 -1.8080991e-05   0.41744897  0.013933481            0   0.40351549    1.5402256    1.9576745    1.3405101 
 3630000   0.96917967 6.9071857e-05    0.5165636 0.0025586939            0   0.51400491    1.4416548    1.9582184    4.3158711 
 3635000   0.95078433 -9.5908596e-05   0.54178708 0.0054676794            0    0.5363194    1.4142917    1.9560788   -1.3176013 
 3640000     1.001975 -1.7538612e-05   0.47837986  0.014452583            0   0.46392728    1.4904378    1.9688177    1.3701664 
 3645000   0.96562605 -3.6981937e-05   0.51437322 0.0080166814            0   0.50635654    1.4363687     1.950742   0.68842517 
 3650000   0.96085504 -0.0001263015   0.53815196  0.027609827            0   0.51054213    1.4292719    1.9674238   -2.3436672 
 3655000   0.97018813 -0.00011224575   0.50309616  0.032551301            0   0.47054486    1.4431548     1.946251   -1.8850705 
 3660000   0.94282235 -1.3141501e-05   0.54973475  0.022909238            0   0.52682552    1.4024482     1.952183    1.5036198 
 3665000     1.001577 -8.6950593e-05   0.46012536 0.0086682161            0   0.45145714    1.4898458    1.9499711   -1.0179424 
 3670000   0.99167074 -0.00012482464   0.49417461  0.016658805            0   0.47751581    1.4751102    1.9692848   -2.2913963 
 3675000   0.94990661 -3.8970688e-05   0.53984553  0.023297509            0   0.51654803    1.4129861    1.9528316   0.62263214 
 3680000   0.99654135 0.00012641236   0.46781297  0.022969959            0   0.44484301    1.4823553    1.9501682    6.2650433 
 3685000   0.94202336 0.00011027535   0.55158124  0.025287507            0   0.52629374    1.4012598     1.952841    5.7169062 
 3690000   0.97974958 -1.1377159e-05   0.48183975  0.025989457            0   0.45585029    1.4573775    1.9392173    1.5508769 
 3695000    0.9567862 0.00010472639   0.54088213 0.0099060001            0   0.53097613    1.4232195    1.9641016    5.5387625 
 3700000    1.0423661 -7.0954765e-06   0.39649862 0.0033173146            0   0.39318131    1.5505196    1.9470182    1.7048259 
 3705000   0.94493988 -0.00019328353   0.55295482 0.0021855936            0   0.55076923    1.4055981    1.9585529   -4.6388583 
 3710000   0.98140527 -1.442111e-06   0.48882699 0.0012231825            0   0.48760381    1.4598403    1.9486673    1.8994433 
 3715000    0.9718471 0.00016316265   0.50092496 0.0067324099            0   0.49419255    1.4456226    1.9465475    7.5158327 
 3720000   0.98604681 0.00010601199   0.47291335  0.026236508            0   0.44667684    1.4667446     1.939658    5.5582006 
 3725000   0.98433899 3.4255058e-05   0.49316223  0.021524858            0   0.47163737    1.4642043    1.9573665    3.1266058 
 3730000   0.98714036 2.3985031e-07   0.48033372  0.014631352            0   0.46570237    1.4683713     1.948705    1.9568919 
 3735000   0.95391343 -7.3154783e-05   0.51251504  0.019996561            0   0.49251848    1.4189462    1.9314613  -0.56555533 
 3740000   0.95490328 -5.2471231e-05   0.48167836  0.031489094            0   0.45018926    1.4204186     1.902097   0.11107897 
 3745000    0.9528218 -3.527332e-05   0.52007854  0.029980476            0   0.49009806    1.4173224     1.937401   0.73340497 
 3750000   0.98357422 0.00011780472   0.49993361  0.015631767            0   0.48430185    1.4630666    1.9630003     5.984068 
 3755000   0.98657382 8.6253218e-05   0.47717926  0.025024459            0    0.4521548    1.4675286    1.9447078    4.8888176 
 3760000   0.95924935 -5.0678326e-05   0.50571089 0.0053751493            0   0.50033574    1.4268834    1.9325943    0.2027741 
 3765000    1.0027852 7.0599416e-05   0.44216641 0.0087833968            0   0.43338302     1.491643    1.9338094    4.3436028 
 3770000   0.99150953 0.00013586334   0.47249218  0.017731871            0   0.45476031    1.4748704    1.9473626    6.5848314 
 3775000   0.96208329 8.8019383e-05   0.52844275  0.030762824            0   0.49767993    1.4310989    1.9595416    4.9639366 
 3780000    0.9565229 -4.288263e-05   0.52042727  0.031345617            0   0.48908165    1.4228278    1.9432551   0.47952796 
 3785000    1.0116491 5.2575012e-05   0.42317676  0.015466711            0   0.40771005    1.5048281    1.9280048    3.7225652 
 3790000    1.0051052 0.00013897667   0.40359586  0.014551151            0   0.38904471     1.495094    1.8986898    6.6424268 
 3795000   0.94262437 -0.00010993466   0.51967667  0.028478408            0   0.49119826    1.4021537    1.9218304    -1.830606 
 3800000   0.94391084 -9.7415271e-05   0.49128257  0.028307762            0   0.46297481    1.4040674      1.89535    -1.429758 
 3805000    1.0087415 0.00011082094   0.40368481   0.01988238            0   0.38380243     1.500503    1.9041878    5.6868757 
 3810000   0.99092674 0.0001265529   0.41661161  0.026203424            0   0.39040819    1.4740035    1.8906151    6.2102875 
 3815000   0.99657867 1.8391983e-05   0.42219004  0.014566987            0   0.40762305    1.4824108    1.9046008    2.5323805 
 3820000   0.95868987 -5.2603745e-05   0.45661276   0.01132285            0   0.44528991    1.4260512    1.8826639  0.087122775 
 3825000    0.9525752 2.4568378e-05   0.48547042  0.022925124            0   0.46254529    1.4169556     1.902426    2.7410267 
 3830000   0.97832304 6.0112296e-06   0.46462662  0.012958041            0   0.45166858    1.4552555    1.9198821    2.1250654 
 3835000    1.0028004 2.1467958e-07   0.40625842 0.0071146138            0   0.39914381    1.4916655    1.8979239    1.9052517 
 3840000   0.92388857 6.0459102e-05   0.52986486  0.018090919            0   0.51177394    1.3742842    1.9041491    3.9678198 
 3845000   0.95122965 1.8830772e-05   0.51520254 0.0046705619            0   0.51053198    1.4149541    1.9301566    2.5729136 
 3850000   0.98707102 6.8400503e-05   0.46169822 0.0040889094            0   0.45760931    1.4682681    1.9299664    4.2647035 
 3855000    1.0188245 -3.8832519e-06   0.40089492  0.011682553            0   0.38921237    1.5155014    1.9163964     1.783848 
 3860000   0.96447353 -8.3218597e-05   0.47467827 0.0048989607            0   0.46977931    1.4346544    1.9093326  -0.93119547 
 3865000   0.99843463 2.4321895e-05   0.39880219  0.010449767            0   0.38835243    1.4851715    1.8839737    2.7141611 
 3870000   0.97868465 0.00013198767   0.41583576   0.02597097            0   0.38986479    1.4557934    1.8716292    6.3768083 
 3875000   0.89729285 7.8183282e-05   0.53320727  0.033515771            0    0.4996915    1.3347231    1.8679304    4.5365864 
 3880000   0.97577823 2.7182677e-06   0.42043856  0.018649203            0   0.40178936    1.4514701    1.8719087    1.9646922 
 3885000    1.0124888 5.8630854e-05   0.37567432  0.028900758            0   0.34677357    1.5060771    1.8817514    3.8830179 
 3890000   0.95806516 8.0301787e-05   0.47179602  0.015040567            0   0.45675545    1.4251219    1.8969179    4.6378856 
 3895000   0.94340575 0.00010658368   0.48554953   0.02059292            0   0.46495661    1.4033161    1.8888656    5.5269219 
 3900000   0.91955614 -2.2086585e-05   0.52999975  0.061576397            0   0.46842335    1.3678398    1.8978395    1.1439508 
 3905000   0.97520899 7.2634243e-05    0.4710352  0.025302832            0   0.44573236    1.4506234    1.9216586    4.4009074 
 3910000   0.97819588 0.00013423257   0.45353963  0.012764003            0   0.44077563    1.4550664     1.908606    6.4904112 
 3915000    0.9570206 0.00010988847   0.45965663  0.016165358            0   0.44349127    1.4235681    1.8832248    5.6340845 
 3920000   0.94235578 0.00015232991   0.48503146   0.02443204            0   0.46059942    1.4017542    1.8867857    7.0863134 
 3925000   0.92677279 2.1074474e-05   0.51888786  0.044209841            0   0.47467802    1.3785745    1.8974624    2.6168044 
 3930000   0.97521353 6.3642472e-05   0.45436921   0.02508672            0   0.42928249    1.4506301    1.9049993     4.077329 
 3935000   0.98695658 3.7348698e-05   0.42941523  0.011090013            0   0.41832522    1.4680979    1.8975131    3.1723487 
 3940000   0.97162588 -4.4616178e-05   0.46291388  0.033377898            0   0.42953598    1.4452935    1.9082074    0.3853085 
 3945000   0.95328351 0.00015001294   0.49606011  0.032335212            0    0.4637249    1.4180092    1.9140693    7.0345109 
 3950000    1.0152878 0.0001657587   0.39466257  0.019015862            0   0.37564671    1.5102407    1.9049032    7.5628001 
 3955000   0.99965432 -3.4932511e-05   0.43189978  0.011979198            0   0.41992059    1.4869858    1.9188856   0.72652254 
 3960000   0.93391829 -0.00013718479   0.52505949   0.02440753            0   0.50065196    1.3892035     1.914263   -2.7683111 
 3965000    1.0175047 -6.8843876e-05   0.41228098  0.019303824            0   0.39297715    1.5135382    1.9258192  -0.42405182 
 3970000    1.0059679 1.5574399e-05   0.41901257  0.025342542            0   0.39367003    1.4963772    1.9153898     2.446996 
 3975000   0.98012939 9.6331662e-05   0.44566699  0.043837128            0   0.40182986    1.4579425    1.9036095    5.1917302 
 3980000   0.96731745 0.00010116477   0.45309236  0.013659941            0   0.43943241    1.4388847    1.8919771     5.345068 
 3985000   0.94120012 0.00014443884    0.5032619 0.0093881377            0   0.49387377    1.4000352    1.9032971     6.833476 
 3990000    1.0010933 9.4924201e-05   0.40855351  0.016433029            0   0.39212048    1.4891263    1.8976798    5.1377592 
 3995000   0.99172251 -0.00013745997   0.43203645  0.046969599            0   0.38506685    1.4751872    1.9072237   -2.7847433 
 4000000   0.95241222 -4.8979028e-05   0.50715315  0.021844682            0   0.48530847    1.4167132    1.9238663   0.25204884 
 4005000   0.99690749 -0.00010956765   0.43874286  0.017449301            0   0.42129356    1.4828999    1.9216428   -1.8182665 
 4010000    1.0064917 -0.00021523711   0.42777755 0.0078777767            0   0.41989977    1.4971564     1.924934    -5.421826 
 4015000    1.0144029 -1.2419816e-05   0.39691425 0.0069219538            0    0.3899923    1.5089244    1.9058386    1.4819089 
 4020000   0.96138602 -1.6618656e-05   0.47644544  0.031005137            0    0.4454403    1.4300617    1.9065071     1.339257 
 4025000    1.0016938 2.7318428e-05   0.42567982  0.020753859            0   0.40492596    1.4900195    1.9156993    2.8481683 
 4030000    0.9543814 0.00011853914   0.46089681  0.020033018            0   0.44086379    1.4196423    1.8805391    5.9266752 
 4035000    1.0007039 -8.792992e-05   0.39264131  0.016137948            0   0.37650336    1.4885471    1.8811884   -1.1201529 
 4040000   0.99646627 -0.00018118012   0.39046921 0.00091685111            0   0.38955236    1.4822436    1.8727128   -4.3115685 
 4045000    1.0035427 5.339877e-05   0.41002663 0.0041938492            0   0.40583278    1.4927697    1.9027963    3.7254743 
 4050000   0.99004537 -2.650897e-05   0.44785328 0.0052120179            0   0.44264126    1.4726925    1.9205458    1.0157063 
 4055000   0.96674096 -0.00015460593   0.47669712  0.005830239            0   0.47086688    1.4380272    1.9147243   -3.3624915 
 4060000   0.99499391 9.8023177e-05   0.42966305  0.020524787            0   0.40913826    1.4800534    1.9097165    5.2555743 
 4065000   0.94780112 6.3716301e-05   0.46436815   0.04724872            0   0.41711944    1.4098542    1.8742223    4.0490721 
 4070000   0.95971084 5.5245852e-05   0.44212486  0.024250377            0   0.41787448    1.4275699    1.8696947    3.7554198 
 4075000   0.89712818 7.7244473e-05   0.53527315  0.051832515            0   0.48344064    1.3344782    1.8697513    4.5063627 
 4080000    0.9328329 -5.0505255e-05   0.49123923  0.028973099            0   0.46226613    1.3875889    1.8788282   0.15491546 
 4085000   0.95632253 -3.8319687e-05   0.45084611  0.049397138            0   0.40144897    1.4225298    1.8733759   0.56539723 
 4090000   0.93867248 3.4189225e-05   0.47377226  0.026044779            0   0.44772748    1.3962753    1.8700476    3.0370398 
 4095000   0.91009692 0.00011283757   0.50169614   0.02047898            0   0.48121716    1.3537692    1.8554653    5.7069877 
 4100000   0.93466884 5.6247743e-05   0.46689468  0.039508761            0   0.42738592    1.3903199    1.8572146    3.7771376 
 4105000   0.99273062 -7.4763722e-06   0.38920257  0.027951972            0    0.3612506    1.4766868    1.8658894    1.6106959 
 4110000   0.99512088 -0.00014505692   0.38242083 0.0080289955            0   0.37439184    1.4802423    1.8626631   -3.0886131 
 4115000   0.91299666 -0.00020065459   0.48446951  0.019646907            0    0.4648226    1.3580825     1.842552   -5.0064578 
 4120000   0.91961601 -5.8603433e-05   0.47987838  0.029254813            0   0.45062357    1.3679288    1.8478072  -0.15252332 
 4125000   0.93402877 -0.00014176611   0.45164929  0.015958777            0   0.43569051    1.3893678    1.8410171   -2.9979329 
 4130000   0.90416249 -0.00018106699   0.47861085  0.012079492            0   0.46653135    1.3449417    1.8235526   -4.3568674 
 4135000   0.98219719 8.2092027e-05   0.36641566 0.0045977862            0   0.36181787    1.4610183     1.827434    4.6295085 
 4140000      0.92181 5.9042112e-05   0.42707648 0.0062545093            0   0.42082198    1.3711924    1.7982689    3.8135729 
 4145000   0.95075912 -4.4181163e-05   0.38801235 0.0022622231            0   0.38575012    1.4142542    1.8022665   0.29421617 
 4150000   0.93678247 -2.3081053e-05   0.43020483 0.0028520064            0   0.42735283    1.3934639    1.8236688    1.0358355 
 4155000   0.94209024 -1.0751623e-06   0.40909348  0.007818372            0   0.40127511    1.4013592    1.8104527    1.7737538 
 4160000   0.94332683 7.4174575e-05   0.42610568  0.019936881            0    0.4061688    1.4031987    1.8293043    4.3611298 
 4165000   0.89219877 7.2293853e-05   0.50191646  0.030712943            0   0.47120351    1.3271457    1.8290621    4.2966923 
 4170000   0.92635285 -9.8665537e-05   0.45064542  0.020948637            0   0.42969678    1.3779499    1.8285953   -1.5391884 
 4175000   0.94981525 4.8087235e-05   0.41012823  0.019920528            0   0.39020771    1.4128502    1.8229784     3.464356 
 4180000   0.90119248 2.9499841e-05   0.48515679  0.030486336            0   0.45467046    1.3405238    1.8256806    2.8326085 
 4185000    0.9395012 -4.6338662e-05   0.41992674  0.021676557            0   0.39825018     1.397508    1.8174348   0.23574178 
 4190000   0.95528784 -0.00011434082   0.40446251  0.012121218            0   0.39234129    1.4209907    1.8254532     -2.07738 
 4195000   0.94633211 -1.4503777e-06   0.41229396  0.022703198            0   0.38959077     1.407669     1.819963    1.7704567 
 4200000   0.90802844 -3.5967878e-06   0.45498242  0.012593289            0   0.44238913    1.3506923    1.8056747    1.6829044 
 4205000   0.96171486 5.6537962e-05   0.38916585  0.011007276            0   0.37815857    1.4305509    1.8197167    3.7495458 
 4210000   0.95382925 9.2276504e-05   0.42806916  0.019620176            0   0.40844898     1.418821    1.8468902    4.9965948 
 4215000   0.93044398 -6.9819127e-05   0.47365135  0.019870633            0   0.45378072    1.3840354    1.8576868  -0.52547278 
 4220000   0.92430176 9.1465611e-05    0.4512544  0.006336342            0   0.44491806    1.3748989    1.8261533    4.9481795 
 4225000   0.99914741 -0.0001497894   0.35435262 0.0064979321            0   0.34785469    1.4862318    1.8405844   -3.2722273 
 4230000   0.89960708 -1.9110243e-05   0.49228323   0.01114074            0   0.48114249    1.3381655    1.8304488    1.1781525 
 4235000   0.94427314 6.3563962e-05   0.42611117  0.013196198            0   0.41291497    1.4046063    1.8307175    4.0003674 
 4240000   0.97750108 1.2475274e-05   0.36033015 0.0099327511            0   0.35039739    1.4540329     1.814363    2.2401857 
 4245000    0.8929874 0.00015385615   0.47822086  0.017930865            0      0.46029    1.3283188    1.8065396     7.058163 
 4250000   0.93397839 -0.00015868877   0.41433026  0.016106264            0   0.39822399    1.3892929    1.8036231   -3.6129535 
 4255000   0.93657984 -5.2851576e-06    0.4353585 0.0070842963            0    0.4282742    1.3931625     1.828521     1.648121 
 4260000   0.90253596 -2.2576185e-05   0.49697554  0.040193675            0   0.45678187    1.3425222    1.8394978    1.0688973 
 4265000   0.93757961 4.3006836e-05    0.4317522  0.018858271            0   0.41289393    1.3946497    1.8264019    3.2943685 
 4270000   0.97883078 5.0276368e-05   0.38366176 0.0022695742            0   0.38139218    1.4560108    1.8396726    3.5557726 
 4275000   0.91330388 -4.86883e-05   0.46326292  0.032348489            0   0.43091443    1.3585395    1.8218024   0.15990848 
 4280000   0.89424341 0.00012004119   0.48614044  0.021212498            0   0.46492794    1.3301871    1.8163275    5.9137336 
 4285000   0.93758022 1.3298827e-05   0.40702456  0.029083737            0   0.37794082    1.3946506    1.8016751    2.2556084 
 4290000   0.92489162 -0.00015351129   0.43175604  0.028957509            0   0.40279853    1.3757763    1.8075323   -3.4323196 
 4295000   0.87568778 7.1151937e-05    0.5184803  0.021336202            0    0.4971441    1.3025856    1.8210659    4.2497187 
 4300000   0.90068075 -9.6599361e-05   0.45895364  0.040728584            0   0.41822505    1.3397626    1.7987163   -1.4985419 
 4305000   0.89496553 -4.1426585e-06   0.46578952  0.016112282            0   0.44967723    1.3312612    1.7970507     1.655648 
 4310000    0.9235688 -5.5524388e-05   0.42348734 0.0082497822            0   0.41523756    1.3738086    1.7972959 -0.097936516 
 4315000   0.93149798 -6.1811533e-06   0.41215682  0.010121032            0   0.40203579    1.3856032    1.7977601    1.5867767 
 4320000   0.92090298 9.2175809e-05   0.44401565  0.015451634            0   0.42856401    1.3698432    1.8138588    4.9601264 
 4325000   0.94852675 -9.4618552e-05   0.41763796  0.030569889            0   0.38706807    1.4109335    1.8285715   -1.4010751 
 4330000   0.94612718 6.5752272e-05   0.42740464  0.024596256            0   0.40280839    1.4073642    1.8347688     4.079113 
 4335000   0.92494675 7.8406899e-05   0.44875996 0.0094255657            0    0.4393344    1.3758583    1.8246182    4.5009071 
 4340000   0.90867974 -0.00012339972   0.48097878 0.0082666852            0   0.47271209    1.3516611    1.8326399    -2.379404 
 4345000   0.97149049 3.437335e-05   0.37922283 0.0056785503            0   0.37354428    1.4450921    1.8243149    2.9975919 
 4350000   0.93140279 7.2105954e-05   0.42956987  0.013058295            0   0.41651157    1.3854617    1.8150315    4.2762481 
 4355000   0.89851289 -0.00014120185   0.45892498  0.008821523            0   0.45010346    1.3365379    1.7954629    -3.024227 
 4360000   0.87327004 -8.5048406e-06   0.50298762  0.023753762            0   0.47923386    1.2989892    1.8019768    1.5116783 
 4365000   0.93549656 5.2778928e-05   0.40507423 0.0074000226            0   0.39767421    1.3915511    1.7966254    3.5981461 
 4370000   0.89053699 -3.8743275e-05   0.48562245 0.0019536854            0   0.48366877    1.3246738    1.8102962    0.4878591 
 4375000   0.88111099 -1.4906827e-05   0.47489239  0.017899777            0   0.45699262    1.3106526     1.785545    1.2767253 
 4380000   0.88466832 6.7235592e-05   0.47075367  0.018100049            0   0.45265362    1.3159441    1.7866978    4.0816727 
 4385000   0.93542287 8.9570365e-07   0.36532795 0.0052008459            0   0.36012711    1.3914415    1.7567695    1.7873428 
 4390000   0.88066591 -6.832018e-05   0.46367673 0.0056303527            0   0.45804637    1.3099905    1.7736673  -0.55832821 
 4395000    0.8764883 -0.00012654419   0.45194148  0.022351764            0   0.42958972    1.3037763    1.7557178   -2.5636571 
 4400000   0.88718352 -0.00020609234   0.43417381  0.018620959            0   0.41555285    1.3196855    1.7538593   -5.2807592 
 4405000   0.83658072 -4.3692948e-05   0.50426775 0.0012533674            0   0.50301439    1.2444138    1.7486816    0.2572956 
 4410000   0.96050998 1.0807418e-05   0.32617501 0.00049020307            0   0.32568481    1.4287586    1.7549336    2.1238268 
 4415000    0.8603773 -4.8462461e-05   0.47938557  0.011980453            0   0.46740511    1.2798112    1.7591968   0.10501145 
 4420000   0.90152666 0.00015496815   0.40642791 0.0082488099            0    0.3981791    1.3410209    1.7474488    7.0370282 
 4425000   0.87170995 0.00016523632   0.45187127 0.0079445179            0   0.44392676    1.2966685    1.7485398    7.3886064 
 4430000   0.85847839 7.3488738e-05   0.49426969 0.0099460311            0   0.48432366    1.2769866    1.7712563    4.2796719 
 4435000   0.93123795 -2.825453e-05   0.38990607  0.024734872            0    0.3651712    1.3852165    1.7751225   0.81070122 
 4440000   0.86696908 -6.8500269e-06   0.49683493  0.020652034            0    0.4761829    1.2896165    1.7864514    1.5526372 
 4445000   0.92190223 -2.3728987e-05    0.4323264  0.015508585            0   0.41681782    1.3713296     1.803656   0.99370654 
 4450000   0.92876324 6.0920248e-05   0.41240046   0.01101599            0   0.40138447    1.3815353    1.7939358    3.8733469 
 4455000   0.90810874 0.00010673589   0.42216732   0.02016001            0   0.40200731    1.3508118    1.7729791    5.4162309 
 4460000   0.87672627 -1.1383878e-05   0.45801285  0.013901448            0   0.44411141    1.3041303    1.7621432    1.3735735 
 4465000   0.96301787 6.0725102e-05   0.35723182  0.026697187            0   0.33053463    1.4324891    1.7897209    3.8624711 
 4470000   0.93461976 0.00014916581   0.42286766  0.014069522            0   0.40879814    1.3902469    1.8131146    6.9046407 
 4475000   0.90867757 7.277302e-05   0.42877197 0.0054339278            0   0.42333804    1.3516579    1.7804299    4.2644156 
 4480000   0.91828248 -6.8946583e-05   0.40707926  0.003817422            0   0.40326184    1.3659452    1.7730244  -0.58035224 
 4485000   0.93132807 5.8929565e-05   0.38081742 0.0097673459            0   0.37105007    1.3853505    1.7661679    3.7776304 
 4490000   0.94510836 0.00014120462   0.36845503  0.017091162            0   0.35136387    1.4058487    1.7743037     6.594088 
 4495000   0.91553406 -3.6645004e-05   0.41747347  0.020458388            0   0.39701508    1.3618569    1.7793304   0.52851426 
 4500000   0.86370517 6.6016888e-05   0.49988542  0.052984148            0   0.44690128    1.2847614    1.7846469    4.0380233 
 4505000    0.9208265 0.00020895841   0.40807716   0.02702011            0   0.38105705    1.3697294    1.7778066    8.9102537 
 4510000   0.88202087 9.8464361e-05   0.47240282 0.0036047419            0   0.46879807     1.312006    1.7844089    5.1453257 
 4515000   0.89266576 7.9826937e-05   0.48243943  0.017201439            0   0.46523799    1.3278403    1.8102797    4.5350392 
 4520000   0.88039751 5.0483395e-05   0.50012634  0.029009649            0   0.47111669    1.3095913    1.8097176    3.5328842 
 4525000   0.89498981 9.3417179e-05   0.48816495  0.023811516            0   0.46435343    1.3312973    1.8194623     5.008102 
 4530000    0.9416934 7.6511475e-05   0.45853153  0.015281088            0   0.44325044    1.4007689    1.8593005    4.4708922 
 4535000   0.95649843 -8.2936649e-05   0.44088692 0.0097539835            0   0.43113294    1.4227914    1.8636783  -0.96722596 
 4540000    0.9595868 2.9391594e-05   0.43815271  0.010669851            0   0.42748286    1.4273854    1.8655381    2.8687711 
 4545000   0.94240984 6.1990148e-05   0.44669256  0.011843892            0   0.43484867    1.4018346    1.8485272    3.9644576 
 4550000   0.94111603 -2.1623077e-05   0.43787685 0.0050737773            0   0.43280308    1.3999101     1.837787    1.0997193 
 4555000   0.91356646 5.6363632e-05   0.46216785 0.0098584891            0   0.45230936    1.3589301     1.821098    3.7449766 
 4560000   0.98514123 -6.9304939e-05   0.36236149  0.020365726            0   0.34199577    1.4653976    1.8277591  -0.53784952 
 4565000    0.9489635 1.4337047e-05   0.41319539 0.0060398109            0   0.40715557    1.4115832    1.8247786    2.3141498 
 4570000   0.92198364 5.3260445e-05   0.45275832 0.0092314124            0    0.4435269    1.3714507     1.824209    3.6421655 
 4575000   0.85619501 -1.8736579e-05   0.56039889  0.011999246            0   0.54839965    1.2735901     1.833989    1.1944471 
 4580000   0.91184911 -4.6098621e-06   0.47970318 0.0039947374            0   0.47570844    1.3563755    1.8360787    1.6787288 
 4585000   0.89876405 1.7572348e-05   0.49122573 0.0084658453            0   0.48275989    1.3369115    1.8281372    2.4279401 
 4590000    0.9315511 -0.00013505888   0.42896802 0.0042421264            0   0.42472589    1.3856823    1.8146503   -2.7953593 
 4595000   0.92684222 -8.400289e-05   0.45151822 0.0099743928            0   0.44154383    1.3786778     1.830196   -1.0371026 
 4600000   0.88503987 5.6129025e-05   0.51823215   0.02673556            0   0.49149659    1.3164968     1.834729    3.7505997 
 4605000   0.89781999 7.0267793e-05   0.49589726 0.0087012602            0     0.487196    1.3355072    1.8314045    4.2298785 
 4610000   0.93602856 6.7722431e-05   0.43573421  0.013532678            0   0.42220153    1.3923425    1.8280767     4.139669 
 4615000   0.90811923 -9.506771e-05   0.47619301   0.01070088            0   0.46549213    1.3508274    1.8270204   -1.4179575 
 4620000   0.88522951 -0.00010609483   0.52637848  0.012428272            0   0.51395021    1.3167789    1.8431574   -1.7782129 
 4625000    0.9309322 7.8951004e-05   0.44759638  0.021706216            0   0.42589017    1.3847616     1.832358     4.527219 
 4630000   0.97181803 -9.2684048e-05   0.40093666      0.01234            0   0.38859666    1.4455793     1.846516   -1.3170995 
 4635000   0.95115647 -0.00011424864   0.44206121    0.0065078            0   0.43555341    1.4148453    1.8569065   -2.0427805 
 4640000   0.94136414 1.9095852e-05   0.47634125  0.012625001            0   0.46371625    1.4002792    1.8766204    2.5284255 
 4645000   0.93891606 -0.0001579111   0.46691433  0.011948294            0   0.45496603    1.3966376     1.863552   -3.5264801 
 4650000   0.97090523 -5.3955126e-05    0.4291768 0.0048519916            0   0.42432481    1.4442215    1.8733983  0.031730034 
 4655000   0.96264406 -4.6261952e-05   0.44233007 0.0033430472            0   0.43898702     1.431933    1.8742631   0.29518846 
 4660000   0.95040562 -3.4590567e-05    0.4564918 0.0079317811            0   0.44856001    1.4137284    1.8702202   0.68952882 
 4665000    0.8950912 -6.4977935e-05   0.52595088 0.0045098794            0     0.521441    1.3314482     1.857399  -0.36051448 
 4670000   0.96351864 -4.0336772e-05   0.41467063 0.0050086999            0   0.40966193     1.433234    1.8479046   0.47107613 
 4675000   0.90589665 -5.882896e-05   0.47685906 0.0049976887            0   0.47186137    1.3475213    1.8243803  -0.18364818 
 4680000    0.9024556 -4.8880954e-05   0.49112876  0.011586388            0   0.47954238    1.3424027    1.8335315   0.16506157 
 4685000   0.89942859 -0.0001330802    0.4911116   0.01816116            0   0.47295044       1.3379    1.8290116   -2.7134593 
 4690000   0.93741351 -6.1689741e-05   0.43416016  0.014004912            0   0.42015525    1.3944026    1.8285628  -0.27711374 
 4695000   0.93868329 -2.9840503e-05   0.44486142 0.0026221488            0   0.44223928    1.3962914    1.8411528   0.82259699 
 4700000   0.93555023 -4.9218113e-05   0.46452662 0.00017261131            0   0.46435401     1.391631    1.8561576   0.17617932 
 4705000   0.91989652 0.00016017514   0.50219387 0.0066633063            0   0.49553056    1.3683461    1.8705399    7.3378513 
 4710000   0.90531112 0.00019668648   0.50422437  0.023672983            0   0.48055139    1.3466503    1.8508747    8.5644399 
 4715000   0.94269715 0.00011413683   0.42646872  0.015906261            0   0.41056246     1.402262    1.8287307    5.7246011 
 4720000   0.89839702 0.00016164895   0.48079199  0.013086439            0   0.46770555    1.3363656    1.8171576    7.3347751 
 4725000   0.90391604 -1.1726832e-05   0.45609873   0.01376183            0    0.4423369    1.3445751    1.8006738     1.400398 
 4730000   0.84392662 -7.9681041e-05   0.53235077 0.0054453213            0   0.52690545    1.2553408    1.7876916   -0.9320879 
 4735000   0.90050747 2.0763803e-05   0.45001383  0.020258059            0   0.42975577    1.3395049    1.7895187    2.4982565 
 4740000   0.94270577 0.00014747498   0.40144408  0.015518451            0   0.38592563    1.4022748    1.8037189    6.8375317 
 4745000   0.89140951 0.00011613048   0.47734817  0.015576317            0   0.46177185    1.3259716    1.8033198    5.7672401 
 4750000   0.88630277 5.4002655e-05    0.4937567  0.013709152            0   0.48004755    1.3183754    1.8121321    3.6554227 
 4755000   0.86893424 3.4614928e-05   0.53633026  0.031157247            0   0.50517301    1.2925397    1.8288699    3.0103928 
 4760000   0.86414902 -6.2455927e-05    0.5285249  0.032214737            0   0.49631016    1.2854217    1.8139466  -0.31788243 
 4765000   0.94360166 -5.7664492e-05    0.4307546 0.0061080207            0   0.42464658    1.4036075    1.8343621  -0.13391926 
 4770000   0.89882793 -0.0001949817   0.49470605  0.001565745            0    0.4931403    1.3370065    1.8317126   -4.8236629 
 4775000   0.90085014 -2.8897887e-05   0.52565551  0.010600233            0   0.51505527    1.3400146    1.8656701   0.87928887 
 4780000   0.93874426 -1.7342582e-05   0.48975567  0.016216403            0   0.47353927    1.3963821    1.8861378    1.2941776 
 4785000   0.91780126 7.1822176e-05   0.52945404 0.0074708706            0   0.52198317    1.3652294    1.8946834    4.3462137 
 4790000    0.9684643 0.00011863557   0.47455265  0.019585436            0   0.45496721    1.4405906    1.9151433    5.9645708 
 4795000   0.98036914 0.00010125271   0.46388542  0.016509743            0   0.44737568    1.4582991    1.9221845    5.3782771 
 4800000   0.96221355 0.00010183399   0.49196761  0.002584015            0   0.48938359    1.4312927    1.9232603    5.3991938 
 4805000   0.94115924 -2.4812129e-05    0.5084729 0.0033461274            0   0.50512677    1.3999744    1.9084473    1.0615266 
 4810000   0.88976879 -1.8626274e-05   0.56702061 0.0085896455            0   0.55843097    1.3235311    1.8905517    1.2547749 
 4815000   0.91794103 -0.00012584838   0.51996537  0.028744235            0   0.49122113    1.3654373    1.8854027   -2.4102221 
 4820000   0.98331231 2.5134848e-05   0.42625079  0.050228075            0   0.37602272    1.4626771    1.8889279     2.746864 
 4825000   0.93120005 0.00010564837   0.50697533  0.042274617            0   0.46470071    1.3851601    1.8921354    5.4982665 
 4830000   0.96343007 8.5904335e-05   0.45773267  0.016451986            0   0.44128068    1.4331022    1.8908349    4.8230362 
 4835000   0.96128668 -0.00011660799   0.44845209  0.009262396            0    0.4391897    1.4299139     1.878366   -2.1018533 
 4840000   0.97677189 -9.9258068e-05   0.45551449  0.013379388            0    0.4421351    1.4529482    1.9084627    -1.479546 
 4845000   0.98229122 9.7332047e-05   0.47491868  0.020996671            0   0.45392201    1.4611582    1.9360769    5.2583441 
 4850000     1.029109 3.2667155e-05   0.39446085  0.019267603            0   0.37519325    1.5307997    1.9252605    3.0402994 
 4855000   0.90675401 7.5900999e-05   0.57044794  0.015615078            0   0.55483286    1.3487966    1.9192445    4.5099986 
 4860000    1.0067172 7.4287897e-05   0.44133008  0.012496462            0   0.42883362    1.4974918    1.9388218    4.4745154 
 4865000   0.97603244 3.2144666e-05   0.47848079  0.014487556            0   0.46399323    1.4518483     1.930329    3.0275337 
 4870000    1.0152319 -0.00019290713    0.4072227  0.024030487            0   0.38319221    1.5101575    1.9173802    -4.667183 
 4875000   0.93588729 -0.00011248754   0.48681417 0.0085261601            0   0.47828801    1.3921323    1.8789465   -1.9606281 
 4880000   0.95252237 0.00015046771   0.47464906 0.0058066349            0   0.46884242     1.416877    1.8915261    7.0274905 
 4885000   0.95282501 -7.0717219e-05   0.45241276 0.0088645489            0   0.44354821    1.4173272      1.86974  -0.54407446 
 4890000    0.9342036 -6.6637029e-05   0.45714295  0.011880107            0   0.44526284    1.3896279    1.8467708  -0.42777312 
 4895000   0.92472787 1.0871712e-05   0.47703429  0.012202124            0   0.46483217    1.3755327     1.852567    2.2236548 
 4900000   0.96066748 5.9385918e-05    0.4224605  0.011365305            0    0.4110952    1.4289929    1.8514534    3.8784927 
 4905000   0.96728625 2.4189676e-05   0.41232062 0.0062683686            0   0.40605225    1.4388383    1.8511589    2.6768332 
 4910000   0.90122499 -9.5131915e-05   0.53029117  0.031569917            0   0.49872126    1.3405722    1.8708634    -1.376306 
 4915000   0.93702522 -5.9186523e-05   0.47971973  0.030366407            0   0.44935332     1.393825    1.8735447  -0.14668857 
 4920000   0.94541874 -0.00010141092   0.48402327 0.0088492073            0   0.47517407    1.4063104    1.8903336    -1.571159 
 4925000   0.95039107 -5.5393517e-05   0.49139967 0.0060258499            0   0.48537382    1.4137067    1.9051064  0.014341012 
 4930000   0.98257979 0.00010221728   0.42521301  0.010211116            0   0.41500189    1.4615874    1.8868004    5.3758169 
 4935000    0.9128287 6.8747188e-05   0.51539947  0.035656566            0    0.4797429    1.3578327    1.8732322    4.2198028 
 4940000   0.94958358 3.5747247e-05   0.46711619  0.024099329            0   0.44301686    1.4125056    1.8796218    3.0997945 
 4945000   0.94845191 -9.5829548e-05   0.47683645  0.014546756            0   0.46228969    1.4108222    1.8876587   -1.3833232 
 4950000   0.90674563 -8.2493503e-05   0.54961852 0.0070166807            0   0.54260184    1.3487841    1.8984026  -0.91737561 
 4955000   0.87366279 0.00012947939   0.59773509 0.0091481373            0   0.58858695    1.2995734    1.8973085    6.3168716 
 4960000   0.97349719 6.8520319e-05    0.4380802   0.01555901            0   0.42252119    1.4480771    1.8861573    4.2249842 
 4965000   0.96247177 7.0206667e-06   0.45226506   0.01901091            0   0.43325415    1.4316768    1.8839418    2.1235806 
 4970000   0.91631241 -9.9891177e-05    0.5019156 0.0051736165            0   0.49674198    1.3630147    1.8649303   -1.5446885 
 4975000    0.9236847 0.00012536242   0.49022966 0.0039192944            0   0.48631036     1.373981    1.8642107    6.1432479 
 4980000   0.93744162 -1.1613949e-05   0.48222416  0.006856359            0    0.4753678    1.3944444    1.8766686    1.4802458 
 4985000    0.8919425 -0.00026162843   0.55477327  0.029531183            0   0.52524209    1.3267645    1.8815377   -7.0487125 
 4990000   0.94087081 -5.3875972e-05   0.48049667  0.014974126            0   0.46552255    1.3995453     1.880042  0.041075504 
 4995000   0.90500418 0.00014233703   0.52446974  0.036025957            0   0.48844378    1.3461937    1.8706635    6.7291006 
 5000000   0.99137553 -1.9206439e-05   0.38486431 0.0072221793            0   0.37764213    1.4746711    1.8595354    1.2039556 
 5005000   0.90040172 -0.00021328075   0.51859763 0.0048734754            0   0.51372415    1.3393476    1.8579452   -5.4220378 
 5010000   0.92669041 -9.8355453e-05   0.48700112 0.0081134778            0   0.47888764     1.378452    1.8654531   -1.4917463 
 5015000   0.90418375 -4.332597e-07   0.50339347 0.0083129416            0   0.49508053    1.3449733    1.8483668    1.8335782 
 5020000    0.8871017 -1.2538914e-05   0.51856385  0.011121033            0   0.50744282    1.3195638    1.8381276    1.4101327 
 5025000   0.90753816 6.357975e-05   0.49335418  0.014947336            0   0.47840685     1.349963    1.8433172     4.013506 
 5030000   0.92377654 0.00017071402   0.47664604  0.010549146            0   0.46609689    1.3741176    1.8507636    7.6778024 
 5035000   0.90412394 6.1669881e-05   0.50323264  0.007459594            0   0.49577305    1.3448844     1.848117    3.9531156 
 5040000   0.94363183 -0.00015692362   0.44392736  0.005336097            0   0.43859127    1.4036523    1.8475797   -3.5087466 
 5045000   0.91065468 -0.00017090717   0.49772258  0.030069876            0   0.46765271    1.3545988    1.8523214   -3.9813101 
 5050000   0.93814506 0.00013180806   0.47426741 0.0074232637            0   0.46684414    1.3954908    1.8697582    6.3688067 
 5055000   0.89465003 9.8142907e-05   0.55110431  0.011014974            0   0.54008934    1.3307919    1.8818962    5.2318408 
 5060000   0.90277381 4.1120888e-05   0.53814948  0.018430641            0   0.51971884     1.342876    1.8810255    3.2846185 
 5065000   0.92789867 4.5476911e-05   0.48153149  0.011316649            0   0.47021484    1.3802493    1.8617808    3.4140593 
 5070000   0.89462884 -6.4612338e-05   0.53685348  0.023923797            0   0.51292969    1.3307604    1.8676139  -0.33782059 
 5075000   0.88490623 -7.264187e-05   0.52148865  0.020113648            0     0.501375     1.316298    1.8377867  -0.64172251 
 5080000   0.91098744 -8.6891829e-05   0.47658586 0.0079425614            0    0.4686433    1.3550938    1.8316797   -1.1342281 
 5085000   0.94472117 -0.00011174489   0.43737254  0.011366769            0   0.42600577    1.4052727    1.8426453   -1.9715804 
 5090000   0.87759009 0.00010662806   0.52119729 0.0090935489            0   0.51210375    1.3054153    1.8266126    5.4661836 
 5095000   0.90712134 -2.7929447e-05    0.4786561 0.0088924163            0   0.46976368     1.349343    1.8279991   0.87467398 
 5100000   0.91378607 -0.00017190113   0.48604918 0.0040450989            0   0.48200408    1.3592568     1.845306   -4.0222527 
 5105000   0.90637437 -3.8051194e-05   0.50400375   0.01575464            0   0.48824911    1.3482319    1.8522356   0.55342155 
 5110000   0.90824101 -3.0956418e-05   0.48269336  0.011403178            0   0.47129018    1.3510085    1.8337019   0.77705613 
 5115000   0.90544102 6.7163033e-05    0.4917785 0.0039502942            0   0.48782821    1.3468435     1.838622    4.1311202 
 5120000   0.92602334 8.8209138e-05   0.45892227  0.026093488            0   0.43282878    1.3774597     1.836382    4.8472539 
 5125000   0.87588572 -0.00015375274   0.56612801  0.042224383            0   0.52390363      1.30288     1.869008   -3.3790855 
 5130000   0.88743879 -0.00010864983   0.57443092  0.018516832            0   0.55591409    1.3200652    1.8944961   -1.8140847 
 5135000   0.95766723 1.6281917e-05   0.43297905  0.016477155            0   0.41650189      1.42453    1.8575091    2.4132652 
 5140000   0.89718311 6.7075323e-05   0.53106242  0.023064639            0   0.50799779    1.3345599    1.8656223    4.1551266 
 5145000   0.93218431 0.00016080556   0.49997863 0.0031154726            0   0.49686316    1.3866242    1.8866028    7.3754327 
 5150000   0.99503394 -1.4031491e-05   0.42662485 0.0035393351            0   0.42308552     1.480113    1.9067378    1.4277963 
 5155000   0.97421117 -9.3799811e-05   0.44243777  0.027066688            0   0.41537108    1.4491391    1.8915769   -1.3101233 
 5160000    0.8885322 0.0001270658   0.57374603  0.017154062            0   0.55659197    1.3216916    1.8954377    6.2326169 
 5165000   0.94603109 6.0228673e-05   0.45751594 0.0040295582            0   0.45348639    1.4072212    1.8647372    3.9205426 
 5170000   0.88694335 3.9311837e-05   0.54387779  0.000881722            0   0.54299606    1.3193282     1.863206      3.20505 
 5175000   0.97360989 -0.00014488173    0.4253954 0.0049044137            0   0.42049098    1.4482447    1.8736401   -3.0716562 
 5180000   0.87861123 1.7722752e-05    0.5859336  0.014577586            0   0.57135602    1.3069342    1.8928678    2.4978044 
 5185000    0.9932471 1.3552738e-05   0.44831284  0.020946472            0   0.42736637    1.4774551    1.9257679     2.388368 
 5190000    0.9767144 -4.1552701e-05   0.46166929  0.015086943            0   0.44658235    1.4528627     1.914532   0.49619975 
 5195000   0.92793136 8.9767087e-05   0.52077584  0.024402133            0    0.4963737    1.3802979    1.9010737    4.9651236 
 5200000   0.93779306 -7.4336076e-05   0.50090446  0.018381063            0    0.4825234    1.3949672    1.8958716  -0.64146641 
 5205000   0.92060225 -3.766185e-05   0.52688759 0.0055523839            0   0.52133521    1.3693958    1.8962834   0.61075896 
 5210000   0.96850367 -1.6951602e-05   0.46439999 0.0019607037            0   0.46243928    1.4406492    1.9050492    1.3264345 
 5215000   0.96676439 0.0001524356   0.47054482  0.015720163            0   0.45482465     1.438062    1.9086068     7.111742 
 5220000    0.9838036 0.00017087758   0.45023321  0.028632397            0   0.42160082    1.4634079    1.9136411    7.7462626 
 5225000    0.9551978 0.00010572708   0.51413566  0.015848282            0   0.49828738    1.4208567    1.9349924    5.5438102 
 5230000    1.0066237 0.00011670675   0.45235378  0.021597608            0   0.43075617    1.4973527    1.9497065    5.9332967 
 5235000   0.98381926 4.5741618e-05   0.47146826  0.025205145            0   0.44626311    1.4634312    1.9348994    3.4962133 
 5240000   0.91991737 8.8604503e-05   0.57057498  0.013538744            0   0.55703623    1.3683771    1.9389521    4.9633191 
 5245000   0.92554536 -0.00011369036   0.55706068  0.013274636            0   0.54378604    1.3767487    1.9338094   -1.9468216 
 5250000   0.92585277 -8.961583e-05   0.56297276   0.01930057            0   0.54367219     1.377206    1.9401788   -1.1187082 
 5255000   0.95896973 -4.7037749e-05   0.53874726  0.024889815            0   0.51385744    1.4264675    1.9652147   0.35965955 
 5260000   0.94307047 -7.7452104e-05   0.53444025  0.013886533            0   0.52055371    1.4028173    1.9372576  -0.70644092 
 5265000      0.97274 0.00013516213   0.50426023  0.015461472            0   0.48879876    1.4469508     1.951211     6.564745 
 5270000   0.97645287 -2.1275417e-06   0.51397214 0.0080089518            0   0.50596319    1.4524736    1.9664458    1.8938257 
 5275000   0.93944627 -0.00011892501   0.52850682 0.0044692724            0   0.52403755    1.3974263    1.9259332    -2.133374 
 5280000   0.93937831 -0.00010446448   0.53821015 0.0071994933            0   0.53101065    1.3973252    1.9355354   -1.6301856 
 5285000   0.92168982 -7.6421934e-05   0.57403572  0.011848467            0   0.56218725    1.3710136    1.9450493  -0.66348603 
 5290000   0.92477924 -3.5581806e-05   0.57096164 0.0065432815            0   0.56441836    1.3756091    1.9465708   0.73204512 
 5295000    0.9448434 -4.5921723e-05    0.5436134 0.0012160894            0   0.54239731    1.4054546     1.949068   0.38160648 
 5300000   0.96951892 -3.3999105e-05   0.52424264 0.0074279342            0    0.5168147    1.4421594     1.966402   0.80589925 
 5305000   0.93664729 -3.565093e-05   0.57065723  0.028866442            0   0.54179079    1.3932628    1.9639201   0.74703501 
 5310000   0.97000409 7.694484e-05   0.51925647  0.028448257            0   0.49080822    1.4428811    1.9621376    4.5885214 
 5315000    0.9381891 -6.2913531e-05   0.54665521  0.010526338            0   0.53612887    1.3955563    1.9422115  -0.20523704 
 5320000   0.97197797 7.0259977e-05   0.49542682  0.031713629            0   0.46371319    1.4458172    1.9412441    4.3394513 
 5325000   0.97966638 0.00017786873    0.4975004  0.031478013            0   0.46602238    1.4572537    1.9547541    8.0260067 
 5330000    0.9881334 -1.9454931e-05   0.51452146  0.044108515            0   0.47041294    1.4698484    1.9843699    1.3203082 
 5335000   0.99657277 -1.4771692e-05   0.49610717  0.018024882            0   0.47808229     1.482402    1.9785092    1.4743021 
 5340000    1.0395248 -1.7848299e-05   0.45380069 0.0028252744            0   0.45097541    1.5462931    2.0000938    1.3908718 
 5345000    1.0312266 -6.1909534e-05   0.47463785 0.0080214955            0   0.46661635    1.5339495    2.0085874  -0.10459141 
 5350000   0.99417455 2.2596206e-05   0.54760419  0.018734092            0    0.5288701    1.4788346    2.0264388    2.7977227 
 5355000    1.0178188 5.7530793e-05   0.50217671 0.0094732138            0   0.49270349    1.5140055    2.0161822       3.9799 
 5360000    1.0161266 4.8184379e-05   0.50747591  0.014514449            0   0.49296146    1.5114883    2.0189642    3.6636577 
 5365000    1.0274717 4.053719e-05   0.47668182 0.0083379106            0   0.46834391    1.5283642     2.005046    3.3887154 
 5370000    1.0169918 -2.7926979e-05   0.46106378 0.0056040001            0   0.45545978    1.5127753    1.9738391    1.0205982 
 5375000    0.9996132 -5.3641914e-05   0.50188205   0.01626152            0   0.48562053    1.4869246    1.9888067   0.15782936 
 5380000    1.0328664 -7.195124e-05   0.46194546  0.020553387            0   0.44139207    1.5363887    1.9983342  -0.45760144 
 5385000     1.008363 -5.1851412e-07   0.48453143 0.0082319099            0   0.47629952      1.49994    1.9844714    1.9667728 
 5390000    0.9988307 6.2912488e-05   0.48474903  0.010050051            0   0.47469898    1.4857607    1.9705097    4.1179226 
 5395000   0.97159351 -2.5680576e-05   0.53136688  0.017048953            0   0.51431793    1.4452453    1.9766122    1.1000486 
 5400000    1.0199115 -1.0477446e-05   0.46561705   0.01253484            0   0.45308221    1.5171184    1.9827355    1.6251053 
 5405000   0.99116042 1.9366069e-05   0.49296599  0.038118249            0   0.45484774    1.4743511    1.9673171    2.6283456 
 5410000   0.98331013 -1.2169057e-05   0.50835464  0.012756265            0   0.49559837    1.4626738    1.9710285     1.555658 
 5415000   0.98435076 8.5586969e-06   0.50851986  0.028867529            0   0.47965233    1.4642218    1.9727416    2.2648785 
 5420000   0.94902945 -2.2570656e-05   0.56069758  0.048750177            0   0.51194741    1.4116813    1.9723789    1.2019672 
 5425000   0.99705785 -0.00015835198   0.50420594  0.010060501            0   0.49414544    1.4831236    1.9873295   -3.4177516 
 5430000    1.0606455 -9.3761313e-05   0.40044699  0.010390847            0   0.39005615    1.5777103    1.9781572   -1.2222289 
 5435000   0.99712984 8.2809704e-05   0.50276483 0.0071052483            0   0.49565958    1.4832306    1.9859955    4.8125667 
 5440000   0.97833327 4.5372268e-06   0.51988423 0.0092205815            0   0.51066365    1.4552707     1.975155    2.1300256 
 5445000   0.97663124 -5.2808968e-06   0.51616612  0.023855195            0   0.49231093     1.452739    1.9689051    1.7886505 
 5450000   0.95612035 0.00011470648   0.53638894  0.051485402            0   0.48490353     1.422229     1.958618    5.8739324 
 5455000     1.010948 7.1769784e-05   0.47919511  0.044292408            0    0.4349027    1.5037852    1.9829803    4.4327223 
 5460000    1.0116564 -1.7198359e-05   0.49397127  0.028154318            0   0.46581695    1.5048389    1.9988102    1.4117729 
 5465000    1.0641712 -5.891878e-05   0.41716104 0.0093264414            0    0.4078346    1.5829547    2.0001158 -0.010978581 
 5470000    1.0139904 -0.00012419147   0.49997878  0.006906434            0   0.49307235    1.5083107    2.0082895   -2.2307793 
 5475000   0.99319873 -0.00014411653    0.5295356  0.013823017            0   0.51571258    1.4773831    2.0069187   -2.9122589 
 5480000    1.0257567 -7.735248e-05   0.50352835  0.024408349            0      0.47912    1.5258132    2.0293415  -0.61095647 
 5485000    1.0835964 5.2561671e-07   0.43099576  0.017590178            0   0.41340558    1.6118496    2.0428454    2.0607864 
 5490000    1.0145731 -1.6678392e-05    0.5098424  0.024371505            0    0.4854709    1.5091775    2.0190199    1.4497308 
 5495000   0.96563144 -1.6610075e-05   0.56842419  0.028559056            0   0.53986514    1.4363768     2.004801    1.4378438 
 5500000    1.0007592 8.8034939e-05   0.50514718  0.016200098            0   0.48894708    1.4886293    1.9937765    4.9987024 
 5505000    1.0173984 -9.0490571e-06   0.48304241  0.013509106            0    0.4695333    1.5133802    1.9964226    1.6875481 
 5510000     1.024782 -7.1068074e-05   0.46301226  0.015874398            0   0.44713786    1.5243632    1.9873754  -0.43841482 
 5515000    1.0588442 3.6403713e-05   0.42207233   0.02116301            0   0.40090932    1.5750308    1.9971031    3.2396832 
 5520000   0.94827504 7.370828e-05    0.5793371   0.04140589            0   0.53793121    1.4105591    1.9898962    4.5058055 
 5525000    1.0083128 -2.9184332e-05   0.48312454  0.017739927            0   0.46538462    1.4998653    1.9829898   0.98683131 
 5530000    0.9838515 -0.00012800741   0.51987636  0.020148268            0    0.4997281    1.4634791    1.9833555    -2.385964 
 5535000   0.97671684 -0.00016419881   0.49901537  0.002945735            0   0.49606964    1.4528663    1.9518817    -3.652771 
 5540000    1.0087598 2.1070983e-06   0.44370414 0.0046289552            0   0.43907519    1.5005302    1.9442343    2.0161566 
 5545000   0.97728334 3.9604324e-05   0.50055956 0.0066579541            0    0.4939016     1.453709    1.9542685    3.3060961 
 5550000   0.97640133 8.6042135e-05   0.48487168 0.0048492991            0   0.48002238     1.452397    1.9372687    4.8741735 
 5555000   0.96331649 0.00010254902   0.50534168  0.015935469            0   0.48940621    1.4329333     1.938275    5.4386148 
 5560000    1.0007338 9.5400726e-05   0.45267722  0.019892479            0   0.43278474    1.4885915    1.9412687    5.1976135 
 5565000   0.98883053 4.1884167e-05   0.50945457  0.013538096            0   0.49591648    1.4708854      1.98034    3.4099862 
 5570000    1.0153538 -1.2714103e-05   0.45619327  0.024130377            0   0.43206289    1.5103387     1.966532    1.5325573 
 5575000    0.9534579 5.6227197e-05   0.52930609  0.021235975            0   0.50807011    1.4182686    1.9475747    3.8667964 
 5580000   0.98168565 -8.5839113e-06   0.47401683  0.018788187            0   0.45522864    1.4602574    1.9342742    1.6412767 
 5585000   0.96088808 2.0438681e-05   0.50375297  0.019902221            0   0.48385075     1.429321     1.933074    2.6307143 
 5590000   0.87753056 -4.2928689e-06   0.62294518    0.0187191            0   0.60422608    1.3053267    1.9282719     1.781742 
 5595000   0.96450108 2.8384366e-06   0.48469555 0.0042491207            0   0.48044642    1.4346954    1.9193909    2.0162762 
 5600000   0.97826758 2.1687442e-05   0.46556397 0.0038892623            0   0.46167471     1.455173     1.920737    2.6610017 
 5605000   0.97170558 -0.0001558275   0.48318458  0.011860306            0   0.47132427    1.4454121    1.9285966   -3.3903153 
 5610000    0.9450744 -0.00015152941   0.52140528  0.016236166            0   0.50516911    1.4057982    1.9272035   -3.2450003 
 5615000   0.95783877 0.00013841707   0.50059403  0.018505556            0   0.48208847    1.4247852    1.9253792    6.6500151 
 5620000   0.95766751 0.00012970281   0.47413932   0.02607633            0   0.44806299    1.4245304    1.8986697     6.325859 
 5625000    0.9688449 -2.2679926e-05   0.46202625  0.021774131            0   0.44025212    1.4411568     1.903183    1.1290416 
 5630000   0.94689988 -3.9937342e-05    0.5115513  0.023921641            0   0.48762966    1.4085136    1.9200649   0.55687027 
 5635000   0.93863281 3.2502301e-05   0.50499289  0.019869228            0   0.48512366    1.3962163    1.9012092    3.0106211 
 5640000   0.94124494 1.2526987e-05   0.51753042 0.0059793713            0   0.51155105    1.4001019    1.9176323    2.3452201 
 5645000   0.99261757 -3.0857456e-05   0.44220818 0.0049386455            0   0.43726953    1.4765186    1.9187268   0.86545898 
 5650000   0.92088861 -0.00015269586   0.57859023  0.012644446            0   0.56594579    1.3698218     1.948412   -3.2636067 
 5655000   0.99456529 -0.00014358629   0.46041665  0.012671824            0   0.44774483    1.4794159    1.9398325   -2.9612462 
 5660000   0.99944725 4.4252561e-05   0.47234853  0.012197607            0   0.46015092    1.4866778    1.9590263    3.4695137 
 5665000    1.0247299 6.3020804e-05   0.43232842 0.0097439758            0   0.42258444    1.5242858    1.9566142    4.1077243 
 5670000   0.91537837 -3.5617581e-05   0.57629384 0.0081346073            0   0.56815923    1.3616253    1.9379192   0.72217242 
 5675000   0.94762739 -6.0672704e-05   0.52295715  0.025003006            0   0.49795414    1.4095957    1.9325529  -0.13840874 
 5680000   0.96670069 -1.6722549e-05    0.5036812  0.026776908            0   0.47690429    1.4379673    1.9416485    1.3708521 
 5685000   0.95573772 5.0223707e-05   0.51934318  0.037417826            0   0.48192536    1.4216599     1.941003    3.6553056 
 5690000   0.89810166 -2.0472444e-05   0.59524531  0.054789805            0    0.5404555    1.3359262    1.9311715    1.2323788 
 5695000   0.98840428 -2.5283649e-05   0.44972557  0.020851539            0   0.42887403    1.4702514    1.9199769    1.0569617 
 5700000   0.93105261 0.00014248858   0.50431208 0.0086223808            0    0.4956897    1.3849408    1.8892528    6.7528631 
 5705000   0.92231545 1.0989148e-05   0.48584603  0.013324569            0   0.47252147    1.3719442    1.8577903    2.2328865 
 5710000   0.94249336 -0.00010422086   0.45777428  0.010826972            0   0.44694731    1.4019589    1.8597332   -1.6976722 
 5715000   0.94307936 -0.00014340768   0.46924884 0.0087553439            0    0.4604935    1.4028305    1.8720794   -3.0229028 
 5720000   0.90698673 -0.00010593951    0.5143322  0.034584298            0    0.4797479    1.3491428     1.863475   -1.7525938 
 5725000   0.89102244 4.2522654e-05   0.56469369  0.028159469            0   0.53653422    1.3253959    1.8900896    3.3415295 
 5730000   0.91520479 6.3611946e-05   0.54006397   0.01850584            0   0.52155813    1.3613671    1.9014311    4.0727189 
 5735000   0.96742209 4.6820181e-05   0.46903143  0.015635956            0   0.45339548    1.4390404    1.9080718    3.5062006 
 5740000   0.94610085 0.0001467365   0.49458466 0.0055232979            0   0.48906136     1.407325    1.9019097    6.9105156 
 5745000   0.89693503 9.3285887e-06   0.57505814  0.014904928            0   0.56015321    1.3341909     1.909249    2.2276648 
 5750000     0.894785 -0.00015122973   0.56615734  0.014569114            0   0.55158823    1.3309927      1.89715   -3.2648248 
 5755000   0.97203858 6.7359443e-05   0.49690422  0.007810463            0   0.48909376    1.4459074    1.9428116    4.2420139 
 5760000   0.97925159 0.0002251752   0.47260565 0.0067888469            0    0.4658168    1.4566367    1.9292424    9.6152224 
 5765000   0.99513423 8.4266797e-05   0.44695254 0.0014557047            0   0.44549684    1.4802622    1.9272147    4.8035214 
 5770000   0.96103891 -5.8945103e-05   0.51187309 0.0052981605            0   0.50657493    1.4295454    1.9414185 -0.070574387 
 5775000   0.90786771 5.945106e-05   0.61251477  0.061370375            0    0.5511444    1.3504532     1.962968    3.9922308 
 5780000   0.95836666 -6.7918295e-05    0.5233763  0.029663232            0   0.49371306    1.4255704    1.9489467  -0.36933108 
 5785000   0.97143144 -6.1125615e-05   0.50650107 0.0096234528            0   0.49687762    1.4450043    1.9515053  -0.13491565 
 5790000   0.99231557 6.6369888e-05   0.49197111 0.0057270921            0   0.48624401    1.4760694    1.9680405     4.233466 
 5795000    1.0294224 -4.1577439e-05   0.44779484 0.00094768093            0   0.44684716    1.5312658    1.9790607   0.55988412 
 5800000    1.0068033 -0.0001594737   0.48375635 0.00035105701            0   0.48340529    1.4976199    1.9813762   -3.4619926 
 5805000    0.9388024 -7.007011e-05   0.57581001 0.0063983934            0   0.56941161    1.3964686    1.9722786  -0.41944785 
 5810000    1.0147572 1.782292e-05    0.4861318  0.030866561            0   0.45526524    1.5094514    1.9955832    2.6039389 
 5815000   0.96701643 0.00011818085   0.53599195  0.014646833            0   0.52134512    1.4384369    1.9744289    6.0083353 
 5820000   0.98742404 7.0824573e-05   0.51149073  0.035153634            0    0.4763371    1.4687933     1.980284    4.3977627 
 5825000   0.90277292 -4.7672962e-05   0.60877094  0.030860653            0   0.57791029    1.3428747    1.9516457   0.32440854 
 5830000    1.0364628 4.0444915e-05   0.41534233 0.0086442534            0   0.40669807    1.5417384    1.9570808    3.3376005 
 5835000   0.98497423 1.3111217e-05   0.50510571 0.0063866722            0   0.49871903    1.4651492    1.9702549    2.4177844 
 5840000   0.96701036 -0.00019604205   0.51822439 0.0096435977            0   0.50858079    1.4384279    1.9566523   -4.7349162 
 5845000    1.0315669 -7.3117276e-05   0.41469211 0.0093189926            0   0.40537312    1.5344558    1.9491479  -0.54658847 
 5850000   0.98917349 0.0001156981   0.50586941  0.021914826            0   0.48395459    1.4713956     1.977265    5.9264268 
 5855000   0.95529769 -1.5684069e-05   0.56059761  0.027599121            0   0.53299849    1.4210053    1.9816029    1.4462534 
 5860000   0.98565127 -0.00019147316   0.48779306   0.02657793            0   0.46121513    1.4661563    1.9539493   -4.5816679 
 5865000   0.95026247 -0.00017036396   0.54822949  0.019919076            0   0.52831041    1.4135154    1.9617449   -3.8533448 
 5870000   0.97810468 -3.8230553e-05   0.50822902  0.028658553            0   0.47957046    1.4549307    1.9631597   0.65822353 
 5875000   0.95635272 4.9929875e-05   0.53697717  0.032084587            0   0.50489258    1.4225747    1.9595518    3.6638249 
 5880000    1.0170867 8.2967492e-05   0.43729263   0.01975162            0   0.41754101    1.5129164     1.950209    4.7821661 
 5885000   0.98540276 -0.00015483684   0.48530468 0.0033085824            0    0.4819961    1.4657866    1.9510913    -3.334006 
 5890000    0.9198327 -0.00024557398   0.54988933 0.0038662246            0   0.54602311    1.3682511    1.9181405   -6.4641182 
 5895000   0.93715296 -5.7572671e-05   0.50710916 0.0070369019            0   0.50007226     1.394015    1.9011242    -0.064023 
 5900000   0.92959564 0.00013893315   0.49809597  0.017143443            0   0.48095253    1.3827735    1.8808695     6.623121 
 5905000   0.92759505 5.0513774e-05   0.48170983  0.026511486            0   0.45519835    1.3797976    1.8615075    3.5857109 
 5910000    0.9444115 2.6902418e-05   0.47748119  0.014266498            0   0.46321469    1.4048121    1.8822933    2.8005625 
 5915000   0.93571368 3.2606538e-05   0.49393836  0.011083601            0   0.48285476    1.3918741    1.8858125    2.9987823 
 5920000   0.94639578 -4.8192828e-05   0.49785309  0.011878833            0   0.48597426    1.4077637    1.9056168   0.26063497 
 5925000   0.88161842 -0.00016335775   0.62026437  0.027173787            0   0.59309058    1.3114074    1.9316718   -3.6442727 
 5930000    0.9344376 -2.7456243e-05   0.54485428  0.024346989            0   0.52050729    1.3899759    1.9348302    0.9976571 
 5935000   0.95084337 5.3072198e-05   0.53255544  0.005286609            0   0.52726883    1.4143795    1.9469349     3.758466 
 5940000   0.95795926 0.00019650288   0.53603698  0.014702532            0   0.52133444    1.4249644    1.9610014    8.6682996 
 5945000   0.99574442 0.00012264106   0.50223868   0.01479678            0    0.4874419    1.4811698    1.9834085    6.1695568 
 5950000   0.97853079 -3.4435284e-05   0.51900088  0.029169438            0   0.48983144    1.4555645    1.9745654   0.79917438 
 5955000   0.91643101 -4.4399272e-05   0.62795193   0.01469352            0   0.61325841    1.3631911     1.991143   0.47564788 
 5960000   0.99435349 -8.6115469e-05    0.5171241 0.0055362986            0    0.5115878    1.4791008    1.9962249  -0.94318309 
 5965000    1.0436971 6.4051386e-05   0.43288375 0.0085607673            0   0.42432299    1.5524994    1.9853832    4.1716705 
 5970000   0.97873566 8.9867584e-05    0.5253493   0.02315258            0   0.50219672    1.4558693    1.9812186    5.0486988 
 5975000   0.93518836 -0.00012549058   0.56116911  0.031454499            0   0.52971461    1.3910927    1.9522618     -2.33115 
 5980000   0.94894159 6.8688316e-05   0.56272637  0.016852069            0    0.5458743    1.4115506     1.974277    4.3188382 
 5985000   0.93093583 0.00012051789   0.58109377 0.0055293766            0   0.57556439     1.384767    1.9658608     6.079538 
 5990000   0.99001146 -5.2620658e-05   0.46962133 0.0016443023            0   0.46797703    1.4726421    1.9422634   0.14614492 
 5995000   0.95366095 1.3872306e-05   0.52320767 0.0081751767            0   0.51503249    1.4185707    1.9417783    2.4152864 
 6000000   0.93033716 -2.7297149e-05   0.56387521  0.018806119            0   0.54506909    1.3838765    1.9477517    1.0160091 
 6005000    0.9382525 0.00012407698   0.55581835 0.0077629562            0   0.54805539    1.3956506    1.9514689      6.18663 
 6010000   0.89875343 0.00022455406   0.61022501  0.016472901            0   0.59375211    1.3368957    1.9471207    9.6118995 
 6015000   0.93869002 -8.1245862e-05   0.54268248  0.061278224            0   0.48140426    1.3963014    1.9389839  -0.83420821 
 6020000   0.95407893 -0.00014936575   0.52607118  0.026568671            0   0.49950251    1.4191924    1.9452636   -3.1530874 
 6025000   0.92998741 9.1352554e-06   0.54441253 0.0050003815            0   0.53941214    1.3833563    1.9277688    2.2395855 
 6030000   0.92627732 -5.9437644e-05   0.55769521 0.0083062618            0   0.54938895    1.3778375    1.9355327 -0.093272192 
 6035000   0.93696718 -3.9616787e-05   0.53850633   0.01509073            0    0.5234156    1.3937387     1.932245   0.57999201 
 6040000   0.98412868 4.1903803e-05   0.49663855  0.010898326            0   0.48574023    1.4638914      1.96053    3.3908465 
 6045000    0.9581454 8.8153116e-05   0.50988181 0.0062373051            0   0.50364451    1.4252413    1.9351231    4.9440828 
 6050000   0.95404382 9.1592405e-05    0.5191368 0.0081871129            0   0.51094969    1.4191402     1.938277    5.0646311 
 6055000     1.040274 -2.5574934e-05   0.39976011  0.011708934            0   0.38805117    1.5474076    1.9471677    1.0742099 
 6060000   0.91103697 -6.5498945e-05    0.6043501  0.014666465            0   0.58968364    1.3551675    1.9595176  -0.27617972 
 6065000   0.99714818 -0.00018829175   0.51254355  0.014637039            0   0.49790651    1.4832579    1.9958015   -4.4312237 
 6070000   0.95997583 4.2352054e-05   0.51908181  0.015410447            0   0.50367136     1.427964    1.9470459    3.3926626 
 6075000   0.92525724 8.5371441e-05   0.56083926  0.015823778            0   0.54501548    1.3763202    1.9371594    4.8511713 
 6080000   0.98193849 3.5300824e-06   0.47403244  0.027993985            0   0.44603846    1.4606335    1.9346659    2.0551594 
 6085000   0.88645205 3.0922667e-05   0.59137654  0.018488233            0   0.57288831    1.3185974     1.909974    2.9654677 
 6090000   0.93143737 -0.0001004353   0.54709418   0.01508935            0   0.53200483    1.3855131    1.9326073   -1.4955844 
 6095000   0.91930407 -0.00014524744    0.5623382  0.012526982            0   0.54981122    1.3674648     1.929803   -3.0279763 
 6100000   0.91490179 3.1131411e-06   0.59667048 0.0091051429            0   0.58756534    1.3609164    1.9575869    2.0638488 
 6105000   0.94941521 4.8878922e-05   0.52743075 0.0074652479            0   0.51996551    1.4122551    1.9396859    3.6080864 
 6110000   0.97078437 2.8547604e-05   0.51598411 0.0093848022            0   0.50659931    1.4440417    1.9600259    2.9344507 
 6115000   0.98101484 -3.3218711e-05   0.50989815 0.0033031746            0   0.50659497    1.4592596    1.9691577   0.83529241 
 6120000   0.93024355 -7.3526992e-05   0.57410424 0.0010581015            0   0.57304614    1.3837373    1.9578415  -0.55187979 
 6125000   0.98162214 0.00016757457   0.51264214  0.007262713            0   0.50537943    1.4601629    1.9728051    7.6926837 
 6130000   0.95200364 0.00021478969   0.53660802  0.012735631            0   0.52387239    1.4161054    1.9527134    9.2842016 
 6135000    1.0205203 -5.6509637e-05   0.44083321  0.013667601            0   0.42716561     1.518024    1.9588572  0.029994908 
 6140000   0.97022478 -0.00013729264   0.52882835 0.0047518034            0   0.52407654    1.4432094    1.9720377   -2.7142179 
 6145000    1.0024774 -5.5783173e-06   0.47609061   0.01871902            0   0.45737159    1.4911851    1.9672757    1.7768692 
 6150000   0.94409488 0.00012886788   0.55105212  0.030269297            0   0.52078282    1.4043411    1.9553932    6.3540835 
 6155000   0.93071387 0.00029030579   0.58066627  0.027505238            0   0.55316104    1.3844369    1.9651032    11.874208 
 6160000   0.92970157 6.0129796e-05   0.57089026  0.011856374            0   0.55903389    1.3829311    1.9538213    4.0062517 
 6165000   0.94292975 -9.7879866e-05   0.54666592 0.0057929156            0     0.540873     1.402608    1.9492739   -1.3916922 
 6170000    1.0692163 -7.0506865e-06   0.38688118 0.0069041035            0   0.37997708    1.5904593    1.9773405     1.736677 
 6175000    0.9673998 3.9394217e-06   0.54186191   0.01206654            0   0.52979537    1.4390072    1.9808691    2.1153347 
 6180000   0.95726249 -7.6840935e-05   0.56125352 0.0053513518            0   0.55590217     1.423928    1.9851815  -0.63765578 
 6185000   0.91421052 -7.3571167e-05   0.64149434  0.013491673            0   0.62800267    1.3598881    2.0013825  -0.50984666 
 6190000    0.9968156 1.4144251e-05   0.53799566  0.037679115            0   0.50031654    1.4827632    2.0207589    2.5035493 
 6195000   0.99600867 4.6183291e-05   0.53576027  0.027441758            0   0.50831851    1.4815629    2.0173232    3.5937128 
 6200000    1.0242592 -8.9550421e-05    0.4938782  0.022067526            0   0.47181068    1.5235856    2.0174638   -1.0391906 
 6205000   0.97926302 -3.1254836e-05   0.55069509  0.036047955            0   0.51464714    1.4566537    2.0073488   0.94051712 
 6210000    1.0015502 -5.8149491e-05    0.5096746  0.021076946            0   0.48859765     1.489806    1.9994806  0.014644598 
 6215000   0.93376357 -0.00020556556    0.6160259  0.033017792            0   0.58300811    1.3889733    2.0049992   -5.0116384 
 6220000    0.9887952 -4.0447849e-05   0.55861634   0.03777404            0    0.5208423    1.4708329    2.0294492    0.6488293 
 6225000   0.98680633 0.0001568595   0.53196165  0.023723404            0   0.50823825    1.4678744    1.9998361    7.3539738 
 6230000   0.98641684 0.00019406882    0.5398776  0.010419289            0   0.52945831    1.4672951    2.0071727    8.6313883 
 6235000    1.0341309 0.00015298319   0.48084612  0.034207694            0   0.44663843    1.5382697    2.0191158    7.2409419 
 6240000    1.0086273 2.1146531e-05   0.53141376  0.030380081            0   0.50103368    1.5003331    2.0317469    2.7535484 
 6245000   0.95978355 -7.3957438e-05   0.58490756  0.034281841            0   0.55062572     1.427678    2.0125856   -0.5118283 
 6250000    0.9923916 -3.890635e-05    0.5034853  0.047543669            0   0.45594163    1.4761825    1.9796678   0.65166438 
 6255000   0.95743726 -3.0608679e-05   0.53937182  0.024212032            0   0.51515979    1.4241879    1.9635598   0.91878351 
 6260000   0.88778844 -5.545744e-05   0.63188095   0.01605004            0   0.61583091    1.3205853    1.9524663  0.059518961 
 6265000   0.97545706 -3.4738292e-05   0.49024149  0.015647054            0   0.47459444    1.4509924    1.9412339   0.75550018 
 6270000   0.89714406 -4.0835166e-05   0.60423384   0.01405702            0   0.59017682    1.3345018    1.9387356   0.54489531 
 6275000   0.93509088 8.2805553e-06   0.53838032 0.0037328168            0    0.5346475    1.3909477     1.929328     2.211971 
 6280000   0.92810003 -5.4866548e-05   0.52806707 0.0074778663            0    0.5205892    1.3805488    1.9086159  0.035837688 
 6285000   0.91045358 3.5114688e-05    0.5585499  0.014006462            0   0.54454344    1.3542997    1.9128496     3.111431 
 6290000   0.90618926 8.3255872e-06   0.56426161 0.0035235715            0   0.56073804    1.3479565    1.9122181    2.1963982 
 6295000   0.93890633 -0.00017470165   0.52164785 0.0094500198            0   0.51219783    1.3966232     1.918271   -4.0448786 
 6300000   0.98916064 -4.6172712e-05   0.46529526  0.034625569            0   0.43066969    1.4713764    1.9366717   0.36064313 
 6305000    0.8962136 5.603154e-05   0.62215182  0.016603497            0   0.60554832    1.3331177    1.9552695    3.8678128 
 6310000   0.92740256 2.8673491e-05   0.55936444  0.010289643            0    0.5490748    1.3795113    1.9388757    2.9175976 
 6315000    1.0117261 -3.3951963e-05   0.41423129  0.013126225            0   0.40110507    1.5049426    1.9191738   0.76028019 
 6320000   0.88056841 -7.8389401e-05   0.59125861  0.013532535            0   0.57772607    1.3098455    1.9011041  -0.77458744 
 6325000   0.90578763 -2.7295644e-05    0.5596822   0.02212117            0   0.53756103    1.3473591    1.9070413      0.97535 
 6330000   0.95961084 6.3808098e-06   0.50401837  0.023261152            0   0.48075722    1.4274211    1.9314395    2.1492378 
 6335000    1.0008409 4.5261445e-05   0.43155499  0.035278086            0   0.39627691    1.4887509    1.9203059    3.4652299 
 6340000   0.98748165 7.2783917e-05   0.44846138  0.015909052            0   0.43255233     1.468879    1.9173403     4.401698 
 6345000   0.89276796 9.3835724e-05   0.57978632  0.024479578            0   0.55530674    1.3279923    1.9077787    5.1107047 
 6350000   0.90015574 -6.6154167e-05   0.56866716  0.011224724            0   0.55744244    1.3389817    1.9076488   -0.3504134 
 6355000   0.92933032 -8.4387003e-05   0.52348082  0.012164547            0   0.51131627    1.3823789    1.9058597  -0.97455004 
 6360000   0.94896976 5.746965e-05    0.5104078   0.01152454            0   0.49888326    1.4115925    1.9220003     3.883631 
 6365000   0.94408801 2.4572994e-05   0.51379192 0.0042956243            0    0.5094963    1.4043309    1.9181228     2.756881 
 6370000   0.86863823 -7.1871999e-05    0.6152584 0.0058989943            0   0.60935941    1.2920994    1.9073578  -0.54587314 
 6375000   0.95639101 2.9215985e-05   0.50490677  0.013370531            0   0.49153624    1.4226316    1.9275384    2.9247773 
 6380000   0.97537488 6.905059e-05   0.49662183  0.022057138            0   0.47456469    1.4508701     1.947492    4.3044188 
 6385000    0.9586223 0.00012326192   0.49971531  0.030610479            0   0.46910483    1.4259507     1.925666    6.1330062 
 6390000    0.9188516 0.00013168061   0.57052729   0.01244611            0   0.55808118    1.3667918    1.9373191    6.4320171 
 6395000    0.9178126 -4.1057618e-05   0.58346478  0.011461578            0    0.5720032    1.3652462     1.948711   0.54727768 
 6400000   0.98606053 -7.5350339e-05   0.49329945  0.013863313            0   0.47943614     1.466765    1.9600645  -0.61189375 
 6405000   0.97335408 6.3313963e-05   0.50768272  0.016910024            0   0.49077269    1.4478642    1.9555469    4.1166635 
 6410000   0.94273178 -6.2670525e-05   0.56471561  0.012656162            0   0.55205945    1.4023135    1.9670291   -0.1721248 
 6415000   0.96838201 -0.00026474994   0.54647733 0.0038211284            0    0.5426562    1.4404682    1.9869456   -7.0498522 
 6420000   0.95565621 -0.0002034082   0.53098102   0.01597777            0   0.51500325    1.4215386    1.9525196   -4.9904803 
 6425000   0.99449386 -3.7729034e-05   0.50429587  0.014533132            0   0.48976273    1.4793096    1.9836055   0.69578778 
 6430000   0.92551478 -2.2428143e-05   0.60513241 0.0059209791            0   0.59921143    1.3767032    1.9818357    1.2162884 
 6435000   0.97079087 8.048223e-06   0.53603672 0.0017808234            0    0.5342559    1.4440514    1.9800881    2.2548008 
 6440000   0.98504418 9.8547918e-05   0.50894183  0.006359704            0   0.50258212    1.4652532     1.974195     5.337964 
 6445000   0.95624584 6.0960417e-05    0.5661868  0.020767269            0   0.54541953    1.4224157    1.9886025    4.0693847 
 6450000   0.94852616 -5.6086566e-05   0.60905486  0.037338809            0   0.57171605    1.4109327    2.0199875   0.10556606 
 6455000    1.0090112 -9.5919765e-05    0.5187999  0.032052345            0   0.48674756    1.5009042    2.0197041   -1.2543572 
 6460000   0.99061987 5.8194242e-05   0.56103607  0.017708223            0   0.54332785    1.4735471    2.0345831    4.0209466 
 6465000     1.057346 6.2154267e-05   0.48527149  0.016844805            0   0.46842669    1.5728021    2.0580736    4.1796059 
 6470000   0.98643169 -0.00017544336   0.56984319  0.030265789            0    0.5395774    1.4673171    2.0371603   -3.9513063 
 6475000   0.98081418 -0.00014838757    0.5915442  0.032924425            0   0.55861978    1.4589611    2.0505053   -3.0144572 
 6480000    0.9664611 -3.0120534e-05   0.60910501  0.041373791            0   0.56773122    1.4376109    2.0467159    1.0186017 
 6485000    1.0180322 -3.9626448e-05   0.54833621  0.028451563            0   0.51988465     1.514323    2.0626592   0.71007642 
 6490000    1.0437231 2.1529523e-05   0.48589901 0.0080596394            0   0.47783937    1.5525382    2.0384372    2.7733115 
 6495000   0.97425878 0.00013969672    0.5963449   0.02520799            0   0.57113691    1.4492099    2.0455548    6.8138696 
 6500000     1.013248 4.8176704e-05   0.53779627  0.021318433            0   0.51647784    1.5072064    2.0450027    3.6894342 
 6505000    1.0397744 -5.8114917e-05   0.53002094  0.027522552            0   0.50249839    1.5466644    2.0766853  0.093029527 
 6510000    1.0194932 -5.1970844e-05   0.53798924 0.0077086648            0   0.53028058    1.5164961    2.0544854   0.28054719 
 6515000    1.0521629 7.3287622e-05   0.47820774    0.0171061            0   0.46110164    1.5650923    2.0433001    4.5448509 
 6520000    1.0712278 7.312154e-05   0.46685489 0.0099752035            0   0.45687968    1.5934513    2.0603062    4.5561881 
 6525000   0.98482755 6.3793926e-05   0.57869107 0.0060372936            0   0.57265378     1.464931     2.043622    4.2211214 
 6530000   0.99079086 7.5709676e-05   0.56620756  0.011148102            0   0.55505946    1.4738014     2.040009    4.6242326 
 6535000    1.0695132 5.5667506e-05   0.45936693  0.049752071            0   0.40961486    1.5909009    2.0502678    3.9503853 
 6540000    1.0344163 -6.4879974e-05    0.5242412 0.0068951309            0   0.51734607    1.5386943    2.0629355  -0.15163434 
 6545000    1.0625742 -9.9640978e-05   0.48428486 0.0094681376            0   0.47481672    1.5805791     2.064864   -1.3362147 
 6550000    1.0367359 -3.6920016e-06    0.5277006  0.018108802            0    0.5095918    1.5421447    2.0698453    1.9438249 
 6555000    1.0458933 6.1043678e-05   0.54191377  0.019005627            0   0.52290815    1.5557662      2.09768    4.1813042 
 6560000    1.0388875 1.7819295e-05   0.56434755   0.02009917            0   0.54424838    1.5453452    2.1096927    2.7179246 
 6565000    1.0688182 5.7194259e-05   0.50982264 0.0067640119            0   0.50305863    1.5898671    2.0996898    4.0519205 
 6570000    1.0229121 -1.5447395e-05   0.55819797  0.021812597            0   0.53638537    1.5215818    2.0797798    1.5525087 
 6575000    1.0325691 -0.00010631044   0.52604709  0.026925907            0   0.49912118    1.5359466    2.0619937   -1.5667359 
 6580000    1.0419905 3.0580194e-05   0.51043354  0.023925353            0   0.48650819    1.5499609    2.0603944    3.1041984 
 6585000   0.99032364 -1.3446074e-06   0.59217391  0.033261945            0   0.55891196    1.4731064    2.0652803    2.0193844 
 6590000    1.0396726 2.7373678e-06   0.53144581  0.010414469            0   0.52103134     1.546513    2.0779588    2.1713943 
 6595000    1.0371975 8.4401757e-05   0.49816332 0.0049933755            0   0.49316995    1.5428313    2.0409947     4.921908 
 6600000    1.0369652 -6.0641924e-05   0.50899121 0.0039853023            0    0.5050059    1.5424858     2.051477 -0.018434012 
 6605000    1.0227333 1.6826173e-05   0.55505512 0.0049948043            0   0.55006031    1.5213158     2.076371    2.6507043 
 6610000    1.0075435 7.4954095e-05   0.55720576  0.020751314            0   0.53645445    1.4987209    2.0559267    4.6143598 
 6615000    1.0112874 -5.625078e-05    0.5255142  0.025147395            0    0.5003668      1.50429    2.0298042   0.10977761 
 6620000    1.0183599 -3.6587577e-05   0.49635123  0.015759388            0   0.48059184    1.5148104    2.0111616   0.76230568 
 6625000    1.0180758 -2.7596289e-05   0.49987016  0.014123471            0   0.48574669    1.5143878     2.014258    1.0723046 
 6630000    1.0345445 5.4816665e-05   0.48902125  0.011984601            0   0.47703665    1.5388849    2.0279062    3.8989817 
 6635000    1.0304984 3.7362308e-05   0.50730048 0.0086573879            0   0.49864309    1.5328664    2.0401669     3.315467 
 6640000    1.0441942 -6.1496009e-05   0.47328271 0.0034398111            0    0.4698429    1.5532389    2.0265216 -0.072542197 
 6645000    1.0240636 -2.6055656e-05   0.47860272 0.0033918768            0   0.47521085    1.5232945    2.0018973    1.1125309 
 6650000    1.0385863 -6.2646567e-05   0.46959899 0.0097748731            0   0.45982411    1.5448971    2.0144961  -0.12384005 
 6655000   0.99841328 -0.00016966509   0.52532803  0.018389077            0   0.50693896    1.4851398    2.0104678   -3.7807672 
 6660000   0.89028788 -5.5444604e-05    0.6742932  0.055432773            0   0.61886043    1.3243032    1.9985964   0.10608728 
 6665000   0.99149188 2.2167865e-05   0.53238981  0.032168379            0   0.50022143    1.4748442     2.007234    2.7638971 
 6670000    1.0037345 -6.4165018e-06   0.45789506  0.018659594            0   0.43923546     1.493055    1.9509501    1.7319335 
 6675000   0.93912705 -4.8085079e-05   0.58014385 0.0084046962            0   0.57173916    1.3969515    1.9770953   0.33579131 
 6680000   0.99704523 -0.00011092859   0.49913041  0.021821729            0   0.47730868    1.4831048    1.9822352   -1.8041275 
 6685000   0.93343074 3.9791429e-05   0.60525562  0.055319679            0   0.54993594    1.3884782    1.9937338     3.351948 
 6690000    1.0491278 0.00011004345   0.47432551  0.030641174            0   0.44368433    1.5605776    2.0349031    5.7910527 
 6695000   0.98287039 -0.00016540643   0.57282872 0.0049164646            0   0.56791225    1.4620197    2.0348484   -3.6110244 
 6700000    1.0168639 -0.00020757356   0.54410177  0.021217279            0   0.52288449    1.5125851    2.0566869   -5.0284905 
 6705000    1.0221521 0.00018327379   0.56061354  0.030732649            0   0.52988089    1.5204513    2.0810649    8.3368102 
 6710000   0.99674771 0.00012220333   0.59491755  0.050309714            0   0.54460784    1.4826622    2.0775798    6.2487869 
 6715000   0.98845149 -7.371202e-05   0.59823453  0.043343776            0   0.55489075    1.4703216    2.0685561  -0.44748084 
 6720000    1.0518303 8.8146528e-05   0.51067265 0.0070239169            0   0.50364873    1.5645976    2.0752702     5.084005 
 6725000    1.0024333 2.8347536e-05   0.58316278  0.039126786            0     0.544036    1.4911195    2.0742823    3.0418782 
 6730000    1.0269583 1.5243126e-05   0.53288852  0.016300311            0    0.5165882    1.5276004    2.0604889    2.5807876 
 6735000    1.0667337 0.00013964762   0.47921515 0.0066300978            0   0.47258506    1.5867664    2.0659815    6.8326203 
 6740000   0.98935844 3.725439e-05   0.60336312  0.013471591            0   0.58989153    1.4716707    2.0750338    3.3466503 
 6745000    1.0261345 8.2748649e-05   0.57816174  0.029488844            0    0.5486729    1.5263751    2.1045368     4.929024 
 6750000    1.0169245 0.00010345925   0.57266281  0.041641801            0   0.53102101    1.5126752     2.085338    5.6167471 
 6755000    1.0638423 5.7541624e-05   0.51446605  0.027298616            0   0.48716744    1.5824653    2.0969314    4.0610188 
 6760000    1.0574245 -9.4052834e-05   0.52388197  0.017961061            0   0.50592091    1.5729189    2.0968009   -1.1135358 
 6765000    1.0621644 -1.2147565e-05   0.51415381 0.0097791378            0   0.50437467    1.5799696    2.0941234    1.6794865 
 6770000    1.0695046 -5.7251908e-05   0.50022662  0.011722815            0    0.4885038    1.5908881    2.0911147   0.13691628 
 6775000    1.0380036 8.3879688e-05   0.55954926  0.029153382            0   0.53039588    1.5440304    2.1035797     4.966673 
 6780000     1.049328 7.3940108e-05   0.52278019 0.0076623809            0   0.51511781    1.5608755    2.0836557     4.607478 
 6785000    1.0009182 -6.1799228e-05   0.57664534  0.011938348            0   0.56470699    1.4888658    2.0655111 -0.043902553 
 6790000    1.0164927 0.00011510994   0.55054363  0.070596832            0    0.4799468    1.5120329    2.0625765    5.9916624 
 6795000    1.0394968 -3.0325447e-05   0.51308631  0.034161083            0   0.47892523    1.5462516    2.0593379    1.0242293 
 6800000     1.059543 2.6908489e-05   0.49376354  0.023266981            0   0.47049656    1.5760702    2.0698337    2.9883101 
 6805000    1.0460216 -0.00018604922   0.53552391 0.0085068635            0   0.52701705    1.5559571     2.091481   -4.2589989 
 6810000     1.044562 -0.00017113195   0.54241171  0.028999807            0   0.51341191     1.553786    2.0961977   -3.7451063 
 6815000    1.0269294 6.2267362e-05   0.55627476    0.0300893            0   0.52618546    1.5275575    2.0838323    4.2092249 
 6820000    1.0145736 0.00016525265    0.5860892  0.017479391            0   0.56860981    1.5091783    2.0952675    7.7358913 
 6825000    1.0634242 -5.352279e-05   0.52684199  0.038729634            0   0.48811236    1.5818434    2.1086854   0.28177422 
 6830000    1.1055939 2.3728347e-05   0.46726253  0.034087393            0   0.43317514     1.644571    2.1118335    2.9217611 
 6835000    1.1183098 3.3345249e-05   0.44395559  0.033500119            0   0.41045547    1.6634858    2.1074414    3.2456259 
 6840000    1.0126884 -0.00010297385   0.61240371  0.041911514            0    0.5704922     1.506374    2.1187777   -1.3960631 
 6845000    1.1066063 -6.3087923e-05   0.49342135  0.028136728            0   0.46528462    1.6460769    2.1394983 -0.013902844 
 6850000     1.093033 0.00011737824    0.4984188  0.016392196            0    0.4820266    1.6258866    2.1243054    6.1308159 
 6855000    1.1330533 0.00022122844   0.42307039  0.010317149            0   0.41275325    1.6854168    2.1084872    9.6597514 
 6860000    1.0428396 5.7545131e-05    0.5317286  0.030400853            0   0.50132774    1.5512239    2.0829525    4.0471596 
 6865000    1.0788896 -0.00015971908   0.46290575   0.01976239            0   0.44314336    1.6048482     2.067754   -3.3839904 
 6870000    1.0163948 -5.1697584e-05     0.522505  0.011703519            0   0.51080148    1.5118873    2.0343923   0.26978143 
 6875000    1.0501929 -0.00013202757   0.49329711  0.010412405            0   0.48288471    1.5621619     2.055459   -2.4510821 
 6880000    1.1207286 -0.00019172982   0.41529566  0.003847995            0   0.41144766    1.6670838    2.0823794   -4.4619983 
 6885000    1.1170109 7.3254719e-06    0.4675803  0.029350841            0   0.43822946    1.6615537     2.129134    2.3791768 
 6890000    1.0940072 4.3231869e-05   0.50351854  0.059379877            0   0.44413866    1.6273357    2.1308543    3.6065021 
 6895000    1.0208723 0.00013475302   0.59152241  0.051234922            0   0.54028749    1.5185476      2.11007    6.7096399 
 6900000    1.1234871 6.4005174e-05   0.44477031  0.018838756            0   0.42593155     1.671187    2.1159573    4.3006673 
 6905000    1.0602272 -0.00011085082   0.51914276  0.011607292            0   0.50753547     1.577088    2.0962308   -1.6874771 
 6910000    1.0213631 -0.00013819993   0.55776907  0.013393349            0   0.54437572    1.5192777    2.0770467   -2.6401774 
 6915000    1.0654673 -7.6316079e-05   0.51090072  0.019394886            0   0.49150583    1.5848826    2.0957833  -0.50913886 
 6920000    1.1021162 3.7068446e-05   0.44755132  0.023338517            0    0.4242128    1.6393978    2.0869491    3.3522188 
 6925000    1.0461604 3.6127734e-05   0.50319045  0.016278519            0   0.48691193    1.5561636     2.059354     3.292514 
 6930000    1.0125329 8.2890538e-05   0.56367235  0.036560729            0   0.52711162    1.5061427     2.069815    4.8991454 
 6935000    1.0690266 0.00012905085   0.49910843  0.035257877            0   0.46385055     1.590177    2.0892854     6.494221 
 6940000    0.9993608 -4.1345699e-05   0.58303913  0.043438481            0   0.53960065    1.4865492    2.0695883   0.65832181 
 6945000    1.0679469 3.7287175e-06   0.47412954  0.023571664            0   0.45055787     1.588571    2.0627005    2.1899741 
 6950000    1.0050573 -1.9813395e-05    0.5678912   0.03437512            0   0.53351608    1.4950228     2.062914    1.3866168 
 6955000    1.0770247 6.0368416e-05   0.46041472  0.029517749            0   0.43089697    1.6020743     2.062489    4.1230642 
 6960000    1.0171111 2.7711863e-05   0.53239287  0.023341124            0   0.50905175    1.5129528    2.0453457     2.991244 
 6965000    1.0949878 2.4719093e-05   0.43427724  0.015203784            0   0.41907346    1.6287943    2.0630716    2.9068166 
 6970000     1.001607 3.5931691e-05   0.57098792  0.033775188            0   0.53721273    1.4898904    2.0608783    3.2873467 
 6975000   0.98487873 -2.4993499e-05   0.60089213  0.060803119            0   0.54008901    1.4650071    2.0658992    1.2127878 
 6980000   0.97756484 -6.3593955e-05   0.58444414  0.028446913            0   0.55599723    1.4541277    2.0385718  -0.13210181 
 6985000    1.0154288 -9.9022912e-06   0.54543455  0.014530159            0   0.53090439    1.5104503    2.0558849    1.7178867 
 6990000    1.0439072 -7.4676947e-05   0.49555778  0.010444377            0    0.4851134    1.5528119    2.0483697  -0.50060342 
 6995000    1.0238751 -2.4254539e-05   0.53917084 0.0057036062            0   0.53346723    1.5230142     2.062185    1.2342967 
 7000000    1.0668758 8.4936554e-05    0.5040788  0.004073072            0   0.50000573    1.5869778    2.0910566    4.9902243 
 7005000    1.0327224 2.1290615e-05    0.5713316 0.0033184035            0    0.5680132    1.5361745    2.1075061    2.8342258 
 7010000     1.009176 -8.2496833e-05   0.62657677 0.0069316443            0   0.61964513    1.5011493    2.1277261  -0.68816577 
 7015000    1.0285284 -5.9586409e-05   0.58735308  0.027556696            0   0.55979638     1.529936     2.117289  0.083406258 
 7020000    1.1119278 6.1752256e-05   0.47720051  0.016625616            0    0.4605749    1.6539926    2.1311931    4.2390035 
 7025000    1.0852421 8.041384e-05   0.51241141   0.01604797            0   0.49636344    1.6142976     2.126709    4.8715014 
 7030000    1.0607906 0.00019430196   0.53619741  0.045622022            0   0.49057539     1.577926    2.1141234    8.7462969 
 7035000    1.0669892 0.00010987024   0.52619138  0.056683779            0    0.4695076    1.5871465    2.1133379    5.8635753 
 7040000    1.0029079 -5.4272913e-05   0.63989218  0.010714942            0   0.62917723    1.4918254    2.1317176    0.2792022 
 7045000    1.0567324 -4.1484781e-05    0.5475253  0.014230274            0   0.53329502    1.5718895    2.1194148   0.70340094 
 7050000    1.0952734 -1.1759562e-05   0.49029245  0.022542382            0   0.46775007    1.6292191    2.1195116    1.7181185 
 7055000    1.0851959 7.353075e-05   0.53177864 0.0094616334            0     0.522317    1.6142289    2.1460076    4.6558571 
 7060000    1.0940091 0.00021466698   0.48539231 0.0043270414            0   0.48106527    1.6273386    2.1127309    9.4400304 
 7065000    1.0819533 -1.5411634e-05   0.47397144 0.0011841571            0   0.47278728    1.6094055    2.0833769    1.5573265 
 7070000   0.97711094 -0.00017759459   0.61389755   0.01876577            0   0.59513178    1.4534525    2.0673501   -3.9945454 
 7075000   0.96894372 -8.9447253e-05   0.61877934   0.05632134            0     0.562458    1.4413038    2.0600831  -0.99304978 
 7080000    1.0442924 -6.6267113e-05   0.51414892  0.020572352            0   0.49357657     1.553385    2.0675339  -0.19438354 
 7085000    1.0292466 0.00010597982   0.53556839  0.012934152            0   0.52263423    1.5310043    2.0665727    5.6840173 
 7090000    1.0739479 0.00011772747   0.46961223  0.016934273            0   0.45267796    1.5974974    2.0671097    6.0855406 
 7095000     1.045974 -4.9805516e-05   0.52130731 0.0083674072            0   0.51293991    1.5558863    2.0771936   0.37716531 
 7100000    1.0496816 0.00010813054   0.51070166    0.0341322            0   0.47656946    1.5614014    2.0721031    5.7629589 
 7105000   0.98240304 -5.1914715e-06   0.58333448  0.087453483            0     0.495881    1.4613245     2.044659    1.8674568 
 7110000    1.0169953 -0.00018947629   0.52261661  0.038302407            0   0.48431421    1.5127805    2.0353971   -4.4320604 
 7115000   0.99914692 -0.00012253234   0.51188784  0.022650148            0   0.48923769     1.486231    1.9981189   -2.1843182 
 7120000   0.92478347 -0.00011466526   0.61561426  0.020765739            0   0.59484852    1.3756154    1.9912297    -1.922678 
 7125000   0.97529194 -9.1911904e-05   0.52782495  0.012235801            0   0.51558915    1.4507468    1.9785717    -1.158688 
 7130000    0.9937524 -5.3643856e-05   0.50468125  0.019706113            0   0.48497514    1.4782067    1.9828879   0.15184432 
 7135000   0.88219828 0.00013772763   0.67662491  0.031226971            0   0.64539794    1.3122699    1.9888949    6.6899981 
 7140000   0.97638844 8.2274988e-05   0.54670792 0.0059904396            0   0.54071748    1.4523778    1.9990857    4.8074053 
 7145000   0.96783237 -5.2840976e-05   0.56598362 0.0078861506            0   0.55809747    1.4396506    2.0056343   0.20199563 
 7150000   0.93866942 7.3819878e-06   0.58375404  0.063445961            0   0.52030808    1.3962708    1.9800248    2.2319966 
 7155000   0.96330866 -4.8902565e-05   0.54708558  0.015896604            0   0.53118897    1.4329216    1.9800072   0.31079965 
 7160000    1.0246573 -2.9439432e-05   0.45259382 0.0084828107            0   0.44411101    1.5241778    1.9767716   0.97190568 
 7165000   0.99977825 4.6696515e-05   0.50657688  0.018539345            0   0.48803754    1.4871702     1.993747    3.5876548 
 7170000   0.93722301 -1.9957125e-06   0.58029838  0.015280159            0   0.56501823    1.3941192    1.9744176    1.9062973 
 7175000   0.92125202 -9.6596042e-05   0.61331648  0.016928814            0   0.59638766    1.3703624    1.9836789    -1.313466 
 7180000    1.0210837 5.8646312e-05   0.44938634  0.015983534            0    0.4334028     1.518862    1.9682483    3.9700425 
 7185000    0.9836462 0.00014865813    0.5294141 0.0061368269            0   0.52327728    1.4631737    1.9925878    7.0667853 
 7190000    1.0275522 -3.8296489e-05   0.45466856  0.014423143            0   0.44024542    1.5284839    1.9831524   0.67596559 
 7195000   0.93383114 -0.00014627357    0.5706185  0.025839402            0    0.5447791    1.3890738    1.9596923   -3.0331123 
 7200000   0.95407535 -7.7699196e-05   0.54286699   0.02239993            0   0.52046706    1.4191871    1.9620541  -0.69007847 
 7205000   0.92638338 -0.00016742815   0.58125476  0.045216672            0   0.53603809    1.3779953      1.95925   -3.7556309 
 7210000   0.92537505 -0.00017157189   0.55526331  0.019135168            0   0.53612814    1.3764954    1.9317587   -3.9245617 
 7215000   0.92175494 -0.00015254151   0.53329067  0.015674611            0   0.51761606    1.3711105    1.9044012   -3.3023492 
 7220000    0.9924185 -5.9715663e-05     0.427535  0.013309623            0   0.41422538    1.4762225    1.9037575  -0.13453712 
 7225000   0.92634526 8.4208651e-05   0.53325307   0.03693549            0   0.49631758    1.3779386    1.9111916    4.7855136 
 7230000    0.8728317 -5.7372841e-05   0.61850906  0.014414763            0    0.6040943    1.2983372    1.9168462 -0.041480067 
 7235000   0.98106549 8.0804584e-05   0.44912381  0.016665695            0   0.43245812    1.4593349    1.9084587    4.6665885 
 7240000   0.98408632 -4.5623126e-05   0.42740656 0.0059344318            0   0.42147213    1.4638284     1.891235   0.33396558 
 7245000   0.98337004 -6.6458884e-05   0.47166684 0.0035403944            0   0.46812644    1.4627629    1.9344298  -0.33403347 
 7250000   0.92378726 -5.6390696e-05   0.55007621  0.010604153            0   0.53947205    1.3741336    1.9242098 -0.00059267742 
 7255000   0.96437822 -0.0002158014    0.5146966  0.021268438            0   0.49342816    1.4345126    1.9492092    -5.416812 
 7260000   0.97793089 -0.00012937335   0.48316106  0.037153911            0   0.44600715    1.4546722    1.9378333   -2.4781106 
 7265000   0.92026353 -8.1226858e-05   0.56370264  0.019781949            0   0.54392069     1.368892    1.9325946  -0.83994879 
 7270000    1.0089157 5.5005811e-05   0.44944424 0.0081160667            0   0.44132818    1.5007621    1.9502064    3.8277381 
 7275000   0.92734478 6.3942764e-05   0.56403681  0.017321173            0   0.54671564    1.3794254    1.9434622    4.1260419 
 7280000    1.0192845 2.9538008e-05   0.43311143  0.017274486            0   0.41583695    1.5161856    1.9492971    2.9575278 
 7285000   0.92493466 9.8448271e-05   0.56369062  0.013733912            0   0.54995671    1.3758403    1.9395309    5.2998986 
 7290000   0.94127913 2.1073202e-05   0.52787306 0.0070697065            0   0.52080335    1.4001527    1.9280258    2.6473244 
 7295000   0.98233682 -2.1675297e-05   0.47371401 0.0067497026            0    0.4669643     1.461226      1.93494    1.1950899 
 7300000    0.8985824 -9.4784951e-05   0.58936845  0.028474525            0   0.56089393    1.3366413    1.9260098   -1.3093166 
 7305000   0.95335055 1.1031247e-05   0.51214198    0.0240041            0   0.48813788    1.4181089    1.9302509    2.3067841 
 7310000   0.97441192 0.00013024515   0.51040369  0.024396202            0   0.48600748    1.4494377    1.9598414    6.4055427 
 7315000   0.96282383 8.644785e-05   0.54162078  0.023860605            0   0.51776018    1.4322004    1.9738212    4.9245745 
 7320000   0.97524188 -2.7251247e-05   0.50983312  0.026826526            0   0.48300659    1.4506723    1.9605054    1.0303295 
 7325000   0.93646349 -6.7310208e-05   0.54679538  0.020699219            0   0.52609616    1.3929894    1.9397848  -0.35773693 
 7330000    0.9302303 -9.0837283e-05   0.55870604  0.027097638            0    0.5316084    1.3837176    1.9424236   -1.1581557 
 7335000   0.95535698 -1.3921282e-05   0.53335289 0.0083068917            0   0.52504599    1.4210935    1.9544464    1.4792666 
 7340000   0.93048603 9.8742002e-05   0.55705756  0.024638117            0   0.53241944     1.384098    1.9411555    5.3115492 
 7345000   0.96870559 -0.00012067717   0.50952232  0.023325245            0   0.48619707    1.4409496    1.9504719   -2.1686423 
 7350000   0.93711856 -0.00013955999   0.55680447  0.012551868            0    0.5442526    1.3939639    1.9507683   -2.8128792 
 7355000   0.97724107 -0.00020341201   0.48595128  0.022106827            0   0.46384446    1.4536461    1.9395974   -5.0035325 
 7360000   0.95729861 -0.00014316316    0.5009055   0.04198316            0   0.45892234    1.4239817    1.9248872   -2.9617488 
 7365000   0.95667323 0.00012219932   0.50796757 0.0082245639            0     0.499743    1.4230514     1.931019     6.102089 
 7370000   0.98148564 0.00019485602   0.46617753  0.016477257            0   0.44970028    1.4599599    1.9261374    8.5772229 
 7375000    1.0070426 2.9651871e-05     0.438273  0.020134059            0   0.41813894    1.4979758    1.9362488     2.948366 
 7380000   0.94837168 5.2804388e-05   0.51547475   0.01024949            0   0.50522526    1.4107029    1.9261776    3.7285674 
 7385000   0.93972953 -3.9784104e-05   0.52720057 0.0037537409            0   0.52344683    1.3978477    1.9250482   0.56708417 
 7390000   0.93282511 -8.1459556e-05    0.5231577 0.0036054029            0    0.5195523    1.3875774    1.9107351  -0.86975114 
 7395000   0.95153467 -8.4069903e-05   0.49348367  0.017585525            0   0.47589815    1.4154078    1.9088915  -0.96069453 
 7400000   0.93500089 -6.7047927e-05   0.52705249  0.021719765            0   0.50533273    1.3908138    1.9178663  -0.37070292 
 7405000   0.95279611 3.627623e-05   0.49309349  0.044832831            0   0.44826066    1.4172842    1.9103777    3.1486063 
 7410000    0.9696475 4.7598577e-05   0.51706398  0.017287272            0   0.49977671    1.4423507    1.9594146    3.5841127 
 7415000   0.99188563 3.1169043e-05   0.49373022  0.011562258            0   0.48216796    1.4754299    1.9691601    3.0330634 
 7420000   0.98827079 -1.774665e-05   0.49076595 0.0041669349            0   0.48659901    1.4700528    1.9608187    1.3550664 
 7425000    1.0069262 1.200679e-05   0.43618836  0.011999699            0   0.42418867    1.4978027    1.9339911    2.3438229 
 7430000   0.93628297 -3.8803483e-05   0.55843832  0.014335931            0   0.54410239    1.3927209    1.9511592   0.62666703 
 7435000    1.0129091 -0.00010287633   0.43405771  0.014574936            0   0.41948277    1.5067023      1.94076   -1.5707522 
 7440000   0.99900554 -2.0656731e-05   0.43393357  0.011142992            0   0.42279058    1.4860207    1.9199543    1.2148712 
 7445000   0.90503211 9.0660257e-05   0.55376402  0.027389058            0   0.52637496    1.3462353    1.8999993    4.9945361 
 7450000   0.87991131 5.1263421e-06   0.58060787  0.028804488            0   0.55180338    1.3088681    1.8894759    2.0644551 
 7455000   0.90262074 3.0521253e-05   0.53775939  0.039338274            0   0.49842112    1.3426484    1.8804077    2.9221998 
 7460000   0.91810472 8.7115075e-05   0.51468252  0.022109173            0   0.49257334    1.3656808    1.8803633    4.8538912 
 7465000   0.96416255 2.5635343e-05   0.44610093 0.00091984545            0   0.44518108    1.4341918    1.8802927    2.7553124 
 7470000   0.95797626 -7.437102e-05   0.45028051  0.002106112            0    0.4481744    1.4249897    1.8752702  -0.66326063 
 7475000   0.89562209 -7.0835816e-05   0.54787254  0.005127932            0   0.54274461    1.3322379    1.8801104  -0.53775212 
 7480000   0.92985415 4.8110195e-05   0.52678432 0.0085229897            0   0.51826133     1.383158    1.9099424    3.5521037 
 7485000   0.96702981 -6.2148559e-05   0.50481491  0.023118838            0   0.48169607    1.4384568    1.9432718  -0.17806573 
 7490000   0.97544671 -1.5187042e-05   0.49206593  0.033020762            0   0.45904517     1.450977    1.9430429    1.4246585 
 7495000   0.99931151 0.00012373942   0.45576671  0.048143295            0   0.40762342    1.4864759    1.9422426    6.1658813 
 7500000    0.9140141 8.9921653e-05   0.58615045  0.050541719            0   0.53560874     1.359596    1.9457464    5.0150722 
 7505000   0.94668355 5.8622998e-05   0.53411826 0.0097329153            0   0.52438534    1.4081918      1.94231    3.9433084 
 7510000   0.93892025 -3.8513693e-05    0.5411903  0.024043699            0    0.5171466    1.3966439    1.9378342   0.62323343 
 7515000   0.95983283 -0.00012125515   0.52577877  0.054135361            0   0.47164341    1.4277513    1.9535301   -2.1853124 
 7520000   0.96514766 -0.00019503782   0.49531839  0.013037516            0   0.48228088    1.4356571    1.9309755   -4.7263155 
 7525000   0.97987376 -0.0001293743   0.49562913  0.015412961            0   0.48021617    1.4575622    1.9531914   -2.4627849 
 7530000   0.99872229 -7.9553825e-05   0.47703006   0.01066714            0   0.46636292    1.4855994    1.9626295  -0.75280776 
 7535000    1.0157777 -0.0001504997   0.49007042 0.0054314982            0   0.48463892    1.5109693    2.0010397   -3.1360166 
 7540000    1.0166849 -0.00013919762    0.4758132 0.0035299906            0   0.47228321    1.5123188     1.988132   -2.7631466 
 7545000    1.0321811 -0.00010444919   0.45984811 0.0021426786            0   0.45770544    1.5353694    1.9952175   -1.5699815 
 7550000   0.97855767 -3.2248209e-05   0.55519329 0.0043344309            0   0.55085886    1.4556045    2.0107978   0.91005897 
 7555000    1.0204737 1.7426612e-05   0.48628385 0.0031128102            0   0.48317104    1.5179547    2.0042385    2.5990669 
 7560000   0.98535286 -0.00011107704   0.56715278 0.0062165343            0   0.56093624    1.4657124    2.0328652   -1.7585645 
 7565000   0.96313127 -1.5426074e-05   0.58415398 0.0099878927            0   0.57416608    1.4326578    2.0168117    1.4902684 
 7570000    1.0432766 5.2551455e-05   0.45530173 0.0074136269            0   0.44788811     1.551874    2.0071757    3.8009321 
 7575000    1.0345701 1.5207001e-05   0.47546276  0.012993713            0   0.46246905    1.5389231    2.0143858    2.5334514 
 7580000   0.96173736 -3.4195927e-05   0.55266977  0.036325242            0   0.51634453    1.4305843    1.9832541    0.8160331 
 7585000   0.97833128 -0.00016250808   0.53582505  0.018398344            0   0.51742671    1.4552678    1.9910928   -3.5558496 
 7590000   0.96732026 -3.7295157e-05    0.5219617  0.028097767            0   0.49386394    1.4388889    1.9608506   0.68784256 
 7595000    0.9705438 6.6379966e-06    0.5259452  0.019568005            0    0.5063772    1.4436839    1.9696291    2.1962061 
 7600000   0.99754277 0.00011549542   0.48648231  0.011479524            0   0.47500279    1.4838449    1.9703272    5.9125709 
 7605000   0.99143439 0.00017732635   0.45903244 0.0071627631            0   0.45186967    1.4747587    1.9337911    7.9865306 
 7610000   0.96312804 -1.7681239e-05   0.51610423  0.014444945            0   0.50165929     1.432653    1.9487572    1.3452376 
 7615000   0.94150432 -7.3624536e-05   0.53044105  0.027057639            0   0.50338341    1.4004877    1.9309287  -0.58212209 
 7620000   0.96922701 0.00012431319   0.51905879  0.025619981            0   0.49343881    1.4417252     1.960784    6.2040075 
 7625000    1.0821275 4.5258933e-05   0.36163444  0.009658258            0   0.35197618    1.6096647    1.9712991    3.5161373 
 7630000   0.96603878 -5.1125389e-05   0.53325554  0.031865075            0   0.50139046    1.4369827    1.9702382   0.22515827 
 7635000    1.0288443 -8.8303438e-05   0.46481908  0.017612238            0   0.44720684     1.530406     1.995225   -1.0188657 
 7640000   0.98847478 -1.6101054e-05   0.53933985    0.0439574            0   0.49538245    1.4703562    2.0096961    1.4601134 
 7645000   0.99778511 0.00024235354   0.50255263  0.021392175            0   0.48116045    1.4842053     1.986758    10.259092 
 7650000    0.9917446 5.1847479e-05   0.50486231  0.032944351            0   0.47191796    1.4752201    1.9800824    3.7498097 
 7655000   0.97461097 -0.0001016579   0.54073386  0.043442457            0    0.4972914    1.4497338    1.9904677   -1.4794555 
 7660000    1.0126656 1.3079725e-05   0.46086146  0.043484263            0    0.4173772    1.5063401    1.9672016    2.4136562 
 7665000   0.97000627 8.6810144e-07   0.49614141  0.029731004            0    0.4664104    1.4428843    1.9390257    1.9686569 
 7670000   0.93914093 2.2441816e-06   0.53741604  0.037718558            0   0.49969748    1.3969721    1.9343882    2.0109896 
 7675000    1.0087859 4.5338598e-05    0.4541663  0.012461019            0   0.44170528     1.500569    1.9547353    3.5022928 
 7680000    1.0223468 6.3128026e-05    0.4282527   0.01518368            0   0.41306902    1.5207409    1.9489936    4.1037636 
 7685000   0.95139104 -6.9573157e-05    0.5130937  0.027757733            0   0.48533597    1.4151942    1.9282879  -0.44647589 
 7690000   0.98176674 -0.00021117599   0.48203552   0.01921011            0   0.46282541     1.460378    1.9424136   -5.2657271 
 7695000   0.97683201 2.8096325e-05   0.48546537 0.0058394337            0   0.47962594    1.4530376     1.938503    2.8975242 
 7700000    1.0341293 3.838785e-05   0.40630095  0.017784171            0   0.38851678    1.5382673    1.9445682    3.2548735 
 7705000    1.0133924 -5.1639682e-05   0.43075306  0.056109876            0   0.37464318    1.5074212    1.9381742   0.17553974 
 7710000   0.92296626 -2.2281108e-06   0.56121961  0.025397289            0   0.53582232    1.3729123    1.9341319    1.8580791 
 7715000   0.99906058 0.00015971433   0.45087229  0.044661537            0   0.40621075    1.4861026    1.9369749    7.3885572 
 7720000   0.99593577 0.00015621811   0.44822952  0.018439878            0   0.42978964    1.4814545     1.929684    7.2619288 
 7725000   0.98117594 -4.0101185e-05   0.47834278  0.030664714            0   0.44767806    1.4594992     1.937842   0.56905487 
 7730000   0.97897469 -8.6818622e-05   0.49162604  0.027733931            0   0.46389211    1.4562249    1.9478509   -1.0155581 
 7735000    1.0121618 6.2502524e-05   0.46903655 0.0050262636            0   0.46401028    1.5055906    1.9746272    4.1080467 
 7740000    1.0751551 -8.7525254e-06   0.35359762  0.012588128            0   0.34100949    1.5992932    1.9528908    1.6541379 
 7745000    1.0033642 -0.00016291227   0.46975575  0.028707052            0    0.4410487    1.4925042      1.96226   -3.5984788 
 7750000    0.9002743 -0.00016919912   0.58300222  0.022499589            0   0.56050264     1.339158    1.9221602   -3.8531696 
 7755000    0.9844624 -0.00019340365   0.45630553  0.012347254            0   0.44395828    1.4643878    1.9206934   -4.6808179 
 7760000   0.95054656 -7.5800213e-05   0.48935753  0.021975767            0   0.46738177     1.413938    1.9032955  -0.68401839 
 7765000    1.0004957 5.9924369e-05   0.42918189  0.035945439            0   0.39323645    1.4882374    1.9174193    3.9628377 
 7770000    0.9986383 5.9509897e-05   0.44693088   0.01963052            0   0.42730036    1.4854745    1.9324053    3.9636765 
 7775000   0.97317681 -4.4641168e-05    0.4990257  0.027664474            0   0.47136122    1.4476005    1.9466262   0.42287432 
 7780000   0.98815783 -8.8526021e-05   0.47807515  0.011765104            0   0.46631005    1.4698848    1.9479599   -1.0737283 
 7785000   0.99334872 -6.2056105e-07   0.44766926  0.015915461            0    0.4317538    1.4776062    1.9252755    1.9040937 
 7790000   0.97365619 0.0001108384   0.45889223  0.022914143            0   0.43597809    1.4483136    1.9072058    5.6904898 
 7795000      0.97471 7.5900988e-05   0.43061313 0.0080068977            0   0.42260623    1.4498811    1.8804943     4.471248 
 7800000    0.9812439 -1.5835256e-05   0.42015026  0.018179341            0   0.40197092    1.4596003    1.8797506    1.3392405 
 7805000   0.97258695 -0.00015132425   0.45260462  0.035423324            0   0.41718129    1.4467231    1.8993277   -3.2658733 
 7810000   0.94567009 8.145326e-05   0.48605159  0.010963666            0   0.47508793    1.4066843    1.8927359    4.6730071 
 7815000    0.9546547 0.00022541238   0.47151501 0.0041753191            0   0.46733969    1.4200489    1.8915639    9.5856399 
 7820000     1.021377 5.4405732e-05    0.3737967 0.0044121945            0    0.3693845    1.5192983     1.893095     3.750144 
 7825000   0.96881626 -0.00016800806   0.46641798 0.0024686238            0   0.46394935    1.4411142    1.9075322   -3.8271431 
 7830000   0.95887971 -0.00014367338   0.48648996 0.0092873902            0   0.47720257    1.4263336    1.9128235   -2.9912278 
 7835000    0.9677155 -6.0380112e-05   0.46188835  0.023542841            0   0.43834551    1.4394768    1.9013652  -0.15960932 
 7840000    0.9641847 9.2132917e-05   0.45741805  0.021422548            0    0.4359955    1.4342247    1.8916428    5.0364464 
 7845000   0.96634634 0.00018275048   0.45128914  0.017292478            0   0.43399666    1.4374402    1.8887293    8.1266124 
 7850000   0.96160786 1.3094681e-05   0.45132127  0.012236217            0   0.43908506    1.4303917     1.881713    2.3286781 
 7855000   0.92527828 -7.4591067e-05   0.49716043  0.033054591            0   0.46410584    1.3763514    1.8735119  -0.67252989 
 7860000   0.98381045 -4.7662388e-05   0.42817631  0.014149964            0   0.41402635     1.463418    1.8915944   0.26471819 
 7865000   0.96943193 6.6812612e-05   0.44540917  0.027862387            0   0.41754678      1.44203    1.8874392    4.1679763 
 7870000   0.94661938 0.00010534246   0.49554955  0.009124979            0   0.48642457    1.4080963    1.9036459    5.4993352 
 7875000   0.98778903 5.937694e-05   0.44283103 0.0049903591            0   0.43784067    1.4693362    1.9121672    3.9389001 
 7880000    1.0231468 8.7377214e-05   0.39468446 0.0071552419            0   0.38752922    1.5219309    1.9166153    4.8990909 
 7885000   0.97924977 2.233546e-05   0.42727499  0.023992305            0   0.40328268     1.456634     1.883909    2.6462927 
 7890000   0.95358961 -9.0998432e-05   0.47302502  0.033890667            0   0.43913435    1.4184645    1.8914896   -1.2145902 
 7895000   0.93683958 -0.00013738761   0.52202766  0.061257825            0   0.46076984    1.3935489    1.9155765   -2.7739205 
 7900000   0.99399032 1.8028678e-05   0.44882915  0.030570387            0   0.41825876    1.4785606    1.9273897    2.5427686 
 7905000   0.96791648 5.842454e-05   0.48593888  0.038892635            0   0.44704625    1.4397758    1.9257146    3.9199389 
 7910000   0.97065494 9.0594793e-05   0.48257408   0.08268166            0   0.39989242    1.4438492    1.9264233    5.0187256 
 7915000    1.0075097 8.067464e-05     0.436399   0.04700989            0   0.38938911    1.4986707    1.9350697    4.6887641 
 7920000   0.95031613 2.8075673e-05    0.5046414  0.013465317            0   0.49117608    1.4135952    1.9182366    2.8765529 
 7925000    1.0058614 4.241195e-05   0.43690105 0.0082600328            0   0.42864101    1.4962188    1.9331198    3.3807811 
 7930000   0.99033521 0.00010000848   0.46971654 0.0032001302            0   0.46651641    1.4731236    1.9428402    5.3564628 
 7935000   0.98135662 4.7992495e-05   0.47914856 0.0034744338            0   0.47567412     1.459768    1.9389165    3.5770603 
 7940000    1.0494319 1.0470428e-05   0.38919123 0.0073504884            0   0.38184074    1.5610299    1.9502212    2.3076118 
 7945000   0.98959783 4.1332037e-05   0.49207323  0.035403908            0   0.45666932    1.4720268       1.9641    3.3749002 
 7950000    0.9517222 4.6027198e-05   0.55313985   0.05155596            0   0.50158389    1.4156868    1.9688266    3.5398883 
 7955000   0.99200619 1.8416213e-05   0.47006457  0.028408414            0   0.44165616    1.4756092    1.9456738    2.5742805 
 7960000   0.96255238 -1.6174577e-05   0.49965888  0.026604922            0   0.47305395    1.4317967    1.9314555    1.3793633 
 7965000   0.94402131 5.2568719e-05   0.49529231  0.014065338            0   0.48122697    1.4042317     1.899524    3.6938696 
 7970000    1.0258078 2.0610268e-06   0.37464173  0.013507026            0    0.3611347    1.5258892    1.9005309    1.9708806 
 7975000   0.94965608 -0.00011389566   0.47218036  0.031571183            0   0.44060917    1.4126134    1.8847938   -2.0028448 
 7980000   0.97474731 -3.3453177e-05    0.4367977  0.039381781            0   0.39741592    1.4499366    1.8867343    0.7448659 
 7985000    0.9424738 -5.1819306e-05   0.47634139  0.053094398            0   0.42324699    1.4019298    1.8782712   0.10950553 
 7990000   0.92909004 -5.2091016e-05   0.50848734  0.014037001            0   0.49445034    1.3820214    1.8905088   0.11246877 
 7995000    0.9562407 9.2031582e-05    0.4760233 0.0055536028            0    0.4704697     1.422408    1.8984313     5.039776 
 8000000   0.96940775 0.00010557014   0.43815199   0.01272095            0   0.42543104     1.441994     1.880146    5.4836068 
 8005000   0.97909256 3.4226405e-06   0.43302586  0.016332417            0   0.41669344    1.4564002     1.889426    2.0062522 
 8010000   0.93860497 -2.8269914e-05   0.51404407  0.034316257            0   0.47972781    1.3961749     1.910219   0.94527258 
 8015000   0.96432085 4.6333843e-05   0.47693669  0.039630712            0   0.43730597    1.4344273    1.9113639    3.4928925 
 8020000   0.96374664 6.7911102e-05   0.46643919  0.029156548            0   0.43728265    1.4335731    1.9000123    4.2180446 
 8025000   0.95648546 2.6188292e-05   0.45909964  0.018401328            0   0.44069831    1.4227721    1.8818718    2.7757655 
 8030000    0.9395263 -4.2341562e-05   0.48214141  0.021299259            0   0.46084215    1.3975454    1.8796868   0.43442815 
 8035000   0.99000614 2.2279754e-06   0.40527514  0.043115529            0   0.36215962    1.4726341    1.8779093    1.9539575 
 8040000   0.97776332 -1.5729693e-05   0.42636291  0.067979383            0   0.35838352    1.4544229    1.8807858     1.343879 
 8045000   0.90776839 -1.4146208e-05   0.51366573  0.067653108            0   0.44601262    1.3503055    1.8639712     1.381114 
 8050000   0.94004404 0.00014316006   0.46973154  0.024302321            0   0.44542922    1.3983155     1.868047    6.7545769 
 8055000   0.98422548 2.2893317e-05   0.42754937  0.014425834            0   0.41312354    1.4640354    1.8915848      2.67301 
 8060000   0.94682043 -9.0484296e-05   0.47088268  0.039251981            0   0.43163069    1.4083954    1.8792781   -1.2092526 
 8065000   0.97288728 -1.0728414e-05   0.44949404  0.039975247            0   0.40951879    1.4471698    1.8966639    1.5304673 
 8070000   0.95026833 -1.8238819e-05   0.48015389  0.029321228            0   0.45083266    1.4135241     1.893678    1.2711263 
 8075000   0.97524993 1.3104491e-05   0.44992462  0.038553976            0   0.41137065    1.4506843    1.9006089    2.3479089 
 8080000   0.91032525 3.7502586e-05   0.54437466   0.02128074            0   0.52309392    1.3541088    1.8984835    3.1785717 
 8085000   0.96010432 1.0408126e-05   0.44898944  0.031597063            0   0.41739238    1.4281552    1.8771446    2.2324087 
 8090000   0.95469361 -6.153956e-05   0.47148399  0.032704862            0   0.43877913    1.4201068    1.8915907  -0.20895958 
 8095000   0.93187708 -1.2280475e-05   0.49310291  0.022126961            0   0.47097595    1.3861672    1.8792701    1.4600965 
 8100000   0.94565673 4.4811527e-05   0.48874488 0.0081966483            0   0.48054824    1.4066644    1.8954093    3.4249761 
 8105000   0.89098979 -2.2226278e-05   0.57740214  0.017449832            0   0.55995231    1.3253473    1.9027494    1.1440925 
 8110000   0.96838654 -7.5193708e-05   0.48792688   0.02630545            0   0.46162143     1.440475    1.9284019  -0.63821006 
 8115000   0.95477819 -3.6251948e-06   0.51674543  0.019145226            0    0.4976002    1.4202326     1.936978     1.813238 
 8120000   0.93342458 -5.4598056e-05   0.54688785 0.0036320685            0   0.54325578    1.3884691    1.9353569   0.07174327 
 8125000   0.97057587 -6.0928093e-05   0.48902426  0.028872756            0   0.46015151    1.4437316    1.9327559  -0.14692304 
 8130000   0.99994924 6.1584605e-05   0.47690706  0.030270092            0   0.44663697    1.4874245    1.9643315    4.0664194 
 8135000   0.94966685 9.6137677e-05   0.55682452  0.055842065            0   0.50098245    1.4126294    1.9694539    5.2509533 
 8140000   0.97742264 7.9186478e-05   0.51080574  0.044408792            0   0.46639695    1.4539162    1.9647219    4.6676204 
 8145000    1.0101514 5.695213e-05   0.47443668  0.064904757            0   0.40953192    1.5026002    1.9770369    3.9210029 
 8150000    1.0101466 -7.7162271e-05   0.49989054  0.033439748            0    0.4664508    1.5025931    2.0024836  -0.63132191 
 8155000    0.8972913 -0.00022970198   0.64750247  0.028635923            0   0.61886654    1.3347208    1.9822233    -5.858271 
 8160000    1.0225038 -4.992787e-05    0.4498932  0.012741431            0   0.43715177    1.5209744    1.9708676     0.266663 
 8165000    1.0542712 0.00015139396   0.40668302 0.0051327969            0   0.40155023    1.5682284    1.9749114     7.142492 
 8170000   0.95332392 0.00012462364   0.57359546  0.018752994            0   0.55484247    1.4180693    1.9916648    6.2454851 
 8175000   0.97230834 -1.3782344e-05   0.54307433   0.03460109            0   0.50847324    1.4463087     1.989383    1.5189456 
 8180000   0.98770699 -4.9929009e-05   0.53701756  0.038017193            0   0.49900036    1.4692141    2.0062317   0.30198819 
 8185000    1.0185624 -2.1437071e-06   0.50372238  0.042981407            0   0.46074097    1.5151115    2.0188339     1.945662 
 8190000   0.99724042 -7.5436686e-06   0.56481879  0.029602113            0   0.53521668    1.4833951    2.0482139    1.7907234 
 8195000    1.0199103 -5.1425601e-06   0.53934939  0.018893532            0   0.52045586    1.5171166     2.056466    1.8809333 
 8200000      1.08799 -5.5284819e-05   0.44748366  0.015872091            0   0.43161157    1.6183851    2.0658688   0.17881361 
 8205000    1.0442397 -0.0001629876   0.54138218 0.0061566037            0   0.53522558    1.5533065    2.0946887   -3.4686214 
 8210000    1.0355212 -0.00019617299   0.54347244 0.0069030726            0   0.53656937    1.5403378    2.0838103   -4.6122277 
 8215000    1.0559552 -0.00017027863   0.52745668  0.018536959            0   0.50891972    1.5707334    2.0981901   -3.7139873 
 8220000    1.0292623 3.8026368e-05   0.57595667  0.028050166            0    0.5479065    1.5310276    2.1069843     3.404951 
 8225000    1.0627826 8.2225502e-05   0.51002716  0.024031908            0   0.48599525    1.5808891    2.0909163    4.8975468 
 8230000   0.98607541 -5.051653e-06   0.60823495  0.011044136            0   0.59719082    1.4667872    2.0750221    1.9025924 
 8235000    1.0344447 2.7822579e-05    0.5170337  0.018909755            0   0.49812395    1.5387365    2.0557702    3.0054476 
 8240000    1.0291712 -2.3335683e-05   0.51952908  0.031155866            0   0.48837322    1.5308921    2.0504212    1.2538966 
 8245000    1.0454765 -4.7237676e-05   0.49745534 0.0074916256            0   0.48996371    1.5551463    2.0526016   0.44022225 
 8250000    1.0316164 -4.8067431e-05   0.51283825   0.01584553            0   0.49699272    1.5345294    2.0473676   0.40666598 
 8255000    1.0149984 -3.8845561e-05   0.53319159    0.0346415            0   0.49855009    1.5098102    2.0430018   0.71707329 
 8260000    1.0070268 3.2392675e-05   0.55417253  0.055588174            0   0.49858435    1.4979523    2.0521249    3.1577948 
 8265000    1.0122674 -0.0001179798   0.55688418  0.024861202            0   0.53202298    1.5057477    2.0626319   -1.9644118 
 8270000    1.0783637 -0.00012843055   0.44286227 0.0071709954            0   0.43569127     1.604066    2.0469283   -2.3368344 
 8275000    1.0245299 3.7676737e-05   0.54280189  0.019841441            0   0.52296045    1.5239883    2.0667902    3.3528228 
 8280000    1.0572394 7.3762795e-06   0.51650864  0.025942167            0   0.49056647    1.5726436    2.0891523    2.3409293 
 8285000    1.0836037 -9.3980088e-05    0.4876338  0.017334152            0   0.47029965    1.6118606    2.0994944   -1.1083593 
 8290000    1.0548945 -0.00014390121   0.51996241 0.0067523634            0   0.51321004    1.5691556     2.089118     -2.82271 
 8295000    1.0154095 -6.317093e-05   0.59162702  0.032011118            0    0.5596159    1.5104217    2.1020487 -0.054185693 
 8300000    1.0097013 -1.3832718e-05   0.57531981  0.047056198            0   0.52826361    1.5019307    2.0772505    1.6050937 
 8305000   0.98890711 -0.00016375018   0.61069487  0.050825487            0   0.55986939    1.4709993    2.0816942   -3.5076454 
 8310000     1.009984 8.1546921e-06    0.5728187  0.023798416            0   0.54902029    1.5023511    2.0751698    2.3535167 
 8315000    1.1098504 -4.2969971e-06   0.42922269   0.03792728            0   0.39129541    1.6509025    2.0801252    1.9334544 
 8320000   0.97585361 -4.2065254e-05   0.61783286  0.019524928            0   0.59830793    1.4515822    2.0694151   0.63358776 
 8325000    1.0795754 -7.226124e-05    0.4520254  0.026093763            0   0.42593164    1.6058684    2.0578938  -0.40862317 
 8330000    1.0140033 -2.3893206e-05   0.55490532  0.034255502            0   0.52064982    1.5083299    2.0632352    1.2476804 
 8335000    1.0612761 8.7249986e-05   0.50508843  0.033219004            0   0.47186942    1.5786482    2.0837366    5.0618695 
 8340000    1.0202549 -1.8551097e-05   0.59170568   0.04817609            0   0.54352959    1.5176291    2.1093348     1.476124 
 8345000    1.0884222 6.4030478e-05   0.50755018  0.012626635            0   0.49492355     1.619028    2.1265782    4.3121518 
 8350000    1.0726055 -6.9881322e-06   0.53820951 0.0064178873            0   0.53179162    1.5955007    2.1337102     1.895182 
 8355000    1.1226202 -0.00018831724   0.48112681  0.011789845            0   0.46933697    1.6698976    2.1510244   -4.2768707 
 8360000    1.0379135 -6.404254e-05   0.60263275  0.030027324            0   0.57260543    1.5438964    2.1465291  -0.03945626 
 8365000    1.0781271 0.00015215925   0.52890301  0.042903544            0   0.48599947     1.603714     2.132617    7.3263196 
 8370000    1.0711973 0.00011988771   0.54323739  0.023534185            0   0.51970321     1.593406    2.1366434    6.2288105 
 8375000     1.081189 4.3116654e-05   0.54426005  0.023096733            0   0.52116332    1.6082687    2.1525287    3.6242439 
 8380000    1.0799403 1.6639407e-05   0.55171016  0.022056014            0   0.52965414    1.6064111    2.1581213    2.7260797 
 8385000    1.0992673 5.9053143e-05   0.52162524  0.026801067            0   0.49482417    1.6351601    2.1567854     4.172466 
 8390000     1.081603 -1.2556341e-05    0.5475379  0.040106378            0   0.50743152    1.6088845    2.1564224    1.7278327 
 8395000     1.092905 -0.000232521   0.51598602  0.025328739            0   0.49065728    1.6256962    2.1416822   -5.7950345 
 8400000    1.1141397 -4.7395933e-05   0.48413086  0.030152031            0   0.45397882    1.6572828    2.1414136   0.52363242 
 8405000    1.0389715 1.2236827e-05   0.56601559  0.047819749            0   0.51819584    1.5454702    2.1114857    2.5291694 
 8410000    1.0497443 1.0010244e-05   0.56511073  0.031441853            0   0.53366887    1.5614947    2.1266054    2.4682884 
 8415000     1.025666 3.3401918e-05   0.59348413  0.042395664            0   0.55108847    1.5256781    2.1191622    3.2592811 
 8420000    1.0453957 4.1129409e-05   0.59951809  0.024105995            0   0.57541209    1.5550261    2.1545442    3.5584281 
 8425000    1.0145874 -3.1165016e-05   0.63734257  0.064307521            0   0.57303505    1.5091988    2.1465414    1.0827755 
 8430000    1.1477376 5.9968385e-05   0.44539032  0.030464723            0   0.41492559    1.7072596    2.1526499    4.1995708 
 8435000    1.1167865 1.1665238e-05   0.47602585  0.032057916            0   0.44396794      1.66122    2.1372458    2.5354193 
 8440000    1.0568836 -2.9136974e-05   0.57873861  0.039314153            0   0.53942446    1.5721144     2.150853     1.156311 
 8445000    1.1151684 4.9956298e-05    0.4905509  0.026177452            0   0.46437345     1.658813    2.1493639    3.8545389 
 8450000    1.1030633 1.6368609e-05   0.52722517  0.011099841            0   0.51612533    1.6408066    2.1680318    2.7267469 
 8455000    1.0452001 9.2664556e-06   0.60476593 0.0077750961            0   0.59699084    1.5547352    2.1595011    2.4757961 
 8460000    1.0393415 -3.542977e-06   0.61967555 0.0033103243            0   0.61636522    1.5460204     2.165696    2.0447624 
 8465000    1.0776829 -6.5856222e-05   0.52447971  0.011186079            0   0.51329363    1.6030533     2.127533  -0.12035938 
 8470000    1.0378507 -8.9593359e-05    0.5874793   0.02516238            0   0.56231692     1.543803    2.1312822  -0.92683776 
 8475000     1.071469 -3.5392699e-05   0.53175697  0.022237106            0   0.50951987    1.5938101    2.1255671   0.91749629 
 8480000    1.0885532 0.00014723343   0.50071196  0.025221064            0    0.4754909    1.6192229    2.1199348    7.1455027 
 8485000    1.0722131 3.7878725e-05   0.52970429  0.023507637            0   0.50619665     1.594917    2.1246213    3.4175484 
 8490000    1.0786219 -6.2842076e-05   0.51322978  0.031708631            0   0.48152115      1.60445    2.1176798 -0.027329708 
 8495000    1.0152978 -8.536735e-05   0.59160568  0.037181784            0    0.5544239    1.5102555    2.1018612  -0.81201098 
 8500000    1.0269773 -7.4499373e-05   0.59990651  0.040751752            0   0.55915476    1.5276288    2.1275353  -0.41537664 
 8505000    1.0407378 4.9420652e-05   0.56780539  0.077443482            0    0.4903619    1.5480974    2.1159028    3.8027944 
 8510000    1.0708174 4.2763173e-05    0.5308991  0.019897888            0   0.51100121    1.5928409      2.12374    3.5833896 
 8515000    1.0735444 -7.4148625e-05   0.51119833  0.013289237            0   0.49790909    1.5968973    2.1080956  -0.42284414 
 8520000    1.0152073 -0.00010037259   0.56847538  0.038088656            0   0.53038672    1.5101209    2.0785963   -1.3474547 
 8525000   0.99247573 1.4699924e-05   0.58181688  0.040655093            0   0.54116178    1.4763076    2.0581245    2.5598819 
 8530000     1.031071 0.00013306537   0.51622197  0.019780709            0   0.49644126    1.5337181      2.04994    6.5919048 
 8535000   0.99948043 0.00011093237   0.56790175  0.019726301            0   0.54817545    1.4867271    2.0546289    5.8411203 
 8540000    0.9764357 1.0189597e-05   0.58370763  0.048495087            0   0.53521254    1.4524481    2.0361557    2.3839606 
 8545000    1.0236039 -7.496447e-05    0.5090937  0.069440268            0   0.43965343    1.5226109    2.0317046  -0.52708268 
 8550000   0.99203157 -9.8830459e-05   0.56670148  0.027249966            0   0.53945152     1.475647    2.0423484   -1.3310646 
 8555000   0.98805189 -5.6034285e-05   0.58443168   0.03642514            0   0.54800654    1.4697272    2.0541589   0.14152193 
 8560000     1.068484 6.1489502e-05   0.47755576  0.052533876            0   0.42502188    1.5893699    2.0669257    4.1657673 
 8565000    1.0513422 -8.3168065e-05   0.50903805  0.023945257            0    0.4850928    1.5638715    2.0729095  -0.76589375 
 8570000    1.0636603 -6.4728351e-06   0.46634073  0.019866881            0   0.44647384    1.5821948    2.0485355     1.827596 
 8575000    1.0538862 5.1087405e-05   0.47049295  0.014887207            0   0.45560574    1.5676557    2.0381486     3.781932 
 8580000   0.97732376 9.6489051e-05   0.58777374  0.016759529            0   0.57101421    1.4537691    2.0415428    5.3350358 
 8585000    1.0436601 3.8851596e-05   0.49572973 0.0032421356            0   0.49248759    1.5524444    2.0481741    3.3743086 
 8590000    1.0571389 -3.8553055e-05   0.47048365 0.0013758629            0   0.46910778    1.5724941    2.0429778   0.72703352 
 8595000    1.0501493 3.7616319e-05   0.49847957  0.014575821            0   0.48390375    1.5620971    2.0605766     3.344547 
 8600000   0.96059928 -4.4139142e-05   0.62044268  0.042727948            0   0.57771473    1.4288914    2.0493341   0.54271805 
 8605000   0.98892119 -2.9248584e-05   0.58165267 0.0095119939            0   0.57214067    1.4710203    2.0526729    1.0543213 
 8610000    1.0622292 6.4970633e-05   0.45602121 0.0035958372            0   0.45242537     1.580066    2.0360872    4.2537514 
 8615000   0.96738386 2.8362175e-05   0.57981063  0.021763403            0   0.55804723    1.4389835    2.0187941    2.9868897 
 8620000   0.98042048 1.0612385e-07   0.54209911  0.022824832            0   0.51927428    1.4583755    2.0004746    2.0040969 
 8625000    1.0005342 0.00017402765   0.55273376  0.025005785            0   0.52772798    1.4882947    2.0410284    7.9811722 
 8630000    1.0416027 0.00023856271   0.45829596  0.020032338            0   0.43826363     1.549384      2.00768    10.150621 
 8635000    1.0144151 -5.5969919e-06   0.51950886    0.0106293            0   0.50887956    1.5089425    2.0284513    1.8374073 
 8640000    1.0565338 -5.0375744e-05   0.43351804  0.010930119            0   0.42258792     1.571594     2.005112   0.28561994 
 8645000   0.96922021 -1.4722958e-05   0.54112368  0.041048021            0   0.50007565    1.4417151    1.9828387    1.4802951 
 8650000   0.93322293 -3.2211088e-06   0.56171281   0.05172249            0   0.50999032    1.3881691    1.9498819    1.8399347 
 8655000   0.94711017 -2.6316247e-05   0.54316173  0.017509744            0   0.52565199    1.4088264    1.9519881    1.0537269 
 8660000    0.9858425 -0.00020072586   0.47928218  0.009949395            0   0.46933278    1.4664407    1.9457229   -4.9057199 
 8665000   0.96784563 -0.00021612401   0.52165691  0.016217958            0   0.50543896    1.4396704    1.9613273   -5.4157055 
 8670000   0.96453982 -2.403032e-05   0.53505631  0.016050998            0   0.51900531     1.434753    1.9698093    1.1495744 
 8675000   0.89947185 -9.7323878e-05    0.6049378   0.02783114            0   0.57710666    1.3379644    1.9429022   -1.3790862 
 8680000   0.94616668 -0.00011408874    0.5312993  0.029539028            0   0.50176027    1.4074229    1.9387222   -1.9555068 
 8685000   0.93487928 -0.0001932137   0.53213568 0.0078353843            0    0.5243003    1.3906329    1.9227686   -4.6722592 
 8690000   0.93918463 -9.4154795e-05    0.5455196 0.0096046942            0   0.53591491    1.3970371    1.9425567   -1.2712602 
 8695000   0.98755843 -6.1591696e-05   0.49651522  0.047340645            0   0.44917458    1.4689932    1.9655084  -0.13682151 
 8700000   0.93113985 -5.3160294e-06   0.58050442  0.020352449            0   0.56015197    1.3850705    1.9655749    1.7841211 
 8705000   0.99981788 7.5414441e-05   0.48718684 0.0022572594            0   0.48492958    1.4872291    1.9744159    4.5485622 
 8710000    0.9757559 -1.2099952e-05   0.53364249 0.0010892844            0   0.53255321    1.4514369    1.9850794    1.5720677 
 8715000   0.98958039 -1.3968844e-05   0.50118586 0.0021714506            0   0.49901441    1.4720008    1.9731867    1.4963835 
 8720000    0.9247266 -2.5708303e-05   0.58382487  0.026769629            0   0.55705524    1.3755308    1.9593557    1.0818456 
 8725000   0.95019278 3.4882437e-05   0.54202334 0.0060312788            0   0.53599206    1.4134118    1.9554351     3.146089 
 8730000    1.0172178 8.7661917e-05   0.41648611  0.010118563            0   0.40636755    1.5131115    1.9295976     4.921791 
 8735000   0.92898774 -3.3987484e-05   0.52578819  0.015498865            0   0.51028932    1.3818693    1.9076574   0.74755132 
 8740000   0.92454109 -0.00011703593   0.54201746 0.0089934615            0     0.533024    1.3752549    1.9172723   -2.0775541 
 8745000    0.9937342 1.2386617e-06   0.45718938 0.0026627425            0   0.45452664    1.4781796     1.935369    1.9776487 
 8750000   0.97485883 4.9080368e-05   0.48513296 0.0033460187            0   0.48178694    1.4501025    1.9352355     3.610512 
 8755000   0.94932826 -7.0311083e-05   0.53485384  0.011024546            0   0.52382929    1.4121258    1.9469796  -0.45297201 
 8760000    1.0080805 1.1762807e-05   0.44458874  0.041531458            0   0.40305728    1.4995197    1.9441084    2.3456122 
 8765000   0.95144127 5.0820916e-05   0.54296786  0.026599586            0   0.51636828    1.4152689    1.9582368     3.692924 
 8770000    1.0022724 0.00010459159   0.46628635 0.0094623916            0   0.45682396    1.4908802    1.9571666    5.5272263 
 8775000   0.93930249 0.00024067616   0.57054398 0.0050821528            0   0.56546183    1.3972124    1.9677564    10.182836 
 8780000   0.97468408 0.00014253289   0.51062657 0.0067404002            0   0.50388617    1.4498426    1.9604691    6.8255918 
 8785000   0.97038686 -5.8967285e-06   0.54075465   0.03847162            0   0.50228303    1.4434504    1.9842051    1.7829301 
 8790000   0.96216634  7.06015e-06   0.53369841  0.066620759            0   0.46707765    1.4312224    1.9649208    2.2059073 
 8795000   0.95434996 7.0237127e-06   0.53910364  0.042950941            0    0.4961527    1.4195956    1.9586992    2.1984419 
 8800000   0.99155263 3.5154855e-05   0.49827906  0.067803719            0   0.43047534    1.4749345    1.9732136     3.173166 
 8805000   0.98505912 4.7186757e-05    0.4888733  0.030804238            0   0.45806906    1.4652754    1.9541487      3.56479 
 8810000     1.024324 -5.4128567e-05   0.43105447  0.021100556            0   0.40995392    1.5236819    1.9547364   0.10714799 
 8815000   0.99887119 -7.5748778e-05   0.46568875 0.0073501727            0   0.45833857    1.4858209    1.9515096  -0.63404865 
 8820000   0.92250219 2.9098187e-05    0.5475067  0.036825734            0   0.51068097     1.372222    1.9197287    2.9129468 
 8825000   0.91192956 4.6363862e-05   0.56246608  0.043673984            0    0.5187921    1.3564952    1.9189613    3.5015145 
 8830000   0.95566622 -1.6275737e-05   0.48488695  0.037301951            0     0.447585    1.4215535    1.9064404    1.3508953 
 8835000   0.90342798 0.00010316755   0.56305893  0.079034329            0    0.4840246    1.3438491     1.906908    5.4283605 
 8840000   0.89346096 0.00012698087   0.55918961  0.038025326            0   0.52116428    1.3290232    1.8882128    6.2224931 
 8845000   0.96004362 -8.4967127e-05   0.45768081  0.026057076            0   0.43162374    1.4280649    1.8857457   -1.0144656 
 8850000   0.93417486 -0.0001595082   0.49379966  0.011100124            0   0.48269954    1.3895851    1.8833848   -3.5611619 
 8855000   0.90738533  4.42806e-05   0.52692067 0.0041268213            0   0.52279385    1.3497357    1.8766564    3.3881008 
 8860000   0.90803001 6.4987986e-05   0.53412431 0.0063391882            0   0.52778513    1.3506946     1.884819    4.1030755 
 8865000   0.92562937 -3.1213614e-05   0.50242142  0.024690469            0   0.47773095    1.3768737    1.8792951   0.81387043 
 8870000   0.95247219 1.610883e-05   0.46199572  0.040951039            0   0.42104469    1.4168024    1.8787981    2.4286462 
 8875000   0.86790933 8.4725699e-06   0.59754213  0.023344961            0   0.57419717    1.2910151    1.8885573    2.1777543 
 8880000   0.89571299 -2.3081177e-05   0.54241613  0.016980953            0   0.52543518    1.3323731    1.8747892    1.0869517 
 8885000   0.92489088 -0.00015265469    0.5007547 0.0052385817            0   0.49551612    1.3757752    1.8765299   -3.3340836 
 8890000   0.89455329 -0.00014727184   0.53202599 0.0028835452            0   0.52914245     1.330648     1.862674   -3.1642049 
 8895000   0.95745762 -8.6466289e-05   0.42967172 0.00074727185            0   0.42892445    1.4242182    1.8538899   -1.0974927 
 8900000   0.93967591 -5.1974485e-05   0.47174534  0.001171684            0   0.47057366    1.3977679    1.8695133   0.09545083 
 8905000    0.9221294 0.00010032371   0.48034112 0.0041680626            0   0.47617306    1.3716675    1.8520086    5.2763913 
 8910000   0.93944539 9.6875324e-05    0.4635434  0.011151602            0    0.4523918     1.397425    1.8609684    5.1676462 
 8915000   0.83682132 3.074075e-06   0.61801796  0.013375706            0   0.60464226    1.2447717    1.8627897    1.9677181 
 8920000   0.90619609 5.3507183e-05   0.50419139  0.011414015            0   0.49277738    1.3479667    1.8521581    3.6785366 
 8925000   0.87828426 9.8409617e-05   0.53973665  0.011684702            0   0.52805195    1.3064478    1.8461845    5.2052327 
 8930000   0.89392531 5.1486901e-05   0.49802059 0.0079018789            0   0.49011871    1.3297139    1.8277345     3.585154 
 8935000   0.92894822 -1.8444241e-07   0.44986411  0.022109655            0   0.42775446    1.3818105    1.8316746    1.8253789 
 8940000   0.93124873 -1.1917522e-05   0.46039884  0.019188154            0   0.44121069    1.3852325    1.8456313    1.4388466 
 8945000   0.91252529 1.8734755e-05    0.4952097  0.021837915            0   0.47337178    1.3573814    1.8525911    2.4920707 
 8950000   0.92701218 2.5790547e-05   0.48699555 0.0089217791            0   0.47807377    1.3789306    1.8659262    2.7462435 
 8955000   0.82937729 3.1618407e-05   0.65436015  0.033100562            0   0.62125959    1.2336987    1.8880589    2.9673005 
 8960000   0.91711748 5.3077496e-05   0.51216414  0.051579617            0   0.46058452    1.3642123    1.8763764    3.6880883 
 8965000   0.90669256 -2.653174e-06   0.54342069  0.023705568            0   0.51971512    1.3487052    1.8921259    1.8015642 
 8970000   0.98242454 0.0001034365   0.42376126  0.010373087            0   0.41338817    1.4613565    1.8851178    5.4157503 
 8975000   0.91165354 4.526379e-05    0.4983741  0.018247032            0   0.48012707    1.3560846    1.8544587    3.3994628 
 8980000   0.89657177 -8.3023678e-05     0.528069  0.014801874            0   0.51326712    1.3336505    1.8617195  -0.97215537 
 8985000   0.92202389 -2.4825579e-05   0.49172068 0.0044819873            0   0.48723869    1.3715105    1.8632312    1.0158515 
 8990000   0.89557414 5.4468991e-05   0.54633807 0.0030083662            0   0.54332971    1.3321665    1.8785046    3.7377128 
 8995000   0.93858915 3.0279935e-05   0.46507924  0.011273526            0   0.45380571    1.3961514    1.8612306    2.8947857 
 9000000   0.90144891 -3.0839542e-05   0.53489642   0.02707044            0   0.50782598    1.3409053    1.8758017   0.82314529 
 9005000    0.8587354 -0.00010807497   0.57415888  0.011035928            0   0.56312295    1.2773689    1.8515278   -1.8374313 
 9010000   0.88283535 -3.5119187e-05   0.55385441 0.0069651053            0   0.54688931    1.3132176     1.867072   0.66833708 
 9015000    1.0081202 -5.935789e-07     0.406677  0.012411959            0   0.39426504    1.4995788    1.9062558     1.885995 
 9020000   0.90393029 2.4628384e-05   0.55384715  0.039306044            0   0.51454111    1.3445963    1.8984435    2.7390923 
 9025000   0.94968485 0.00016210372   0.47871177  0.033210903            0   0.44550087    1.4126562     1.891368    7.4245082 
 9030000    0.9384534 2.8930199e-05   0.48841005  0.032754432            0   0.45565562    1.3959494    1.8843595    2.8718436 
 9035000   0.92067473 -9.2948657e-05   0.51562601  0.023808547            0   0.49181746    1.3695037    1.8851297   -1.2875178 
 9040000   0.95961935 -5.4811844e-05    0.4786316  0.018720607            0   0.45991099    1.4274338    1.9060654  0.035154438 
 9045000   0.97791604 2.7060881e-05   0.45707234  0.034486812            0   0.42258553    1.4546501    1.9117225    2.8354005 
 9050000   0.95002084 -6.4020379e-05   0.49420727  0.027358104            0   0.46684917     1.413156    1.9073633  -0.27786566 
 9055000   0.95824519 5.2018907e-06   0.48762326   0.02861853            0   0.45900473    1.4253897     1.913013    2.0905709 
 9060000   0.89892912 9.1059426e-05   0.56639572  0.029746585            0   0.53664913    1.3371571    1.9035528    5.0117145 
 9065000    0.9756667 1.5209338e-05   0.46925275  0.010835095            0   0.45841765    1.4513042     1.920557    2.4397024 
 9070000   0.92866437 -9.0296356e-06   0.53990837  0.020126941            0   0.51978143    1.3813883    1.9212966    1.6130851 
 9075000    1.0294061 0.00011298046   0.38990679  0.019989499            0   0.36991729    1.5312416    1.9211484    5.7775481 
 9080000   0.98686168 3.1850057e-06   0.45351055     0.015104            0   0.43840655    1.4679567    1.9214673    2.0301822 
 9085000   0.95588464 -4.2518691e-05   0.48811766  0.008493049            0   0.47962461    1.4218784    1.9099961   0.45869142 
 9090000    1.0259888 9.0856256e-05   0.35795262  0.015973385            0   0.34197923    1.5261584     1.884111    4.9853379 
 9095000   0.88789689 -4.8611467e-05   0.55832363  0.013475611            0   0.54484802    1.3207466    1.8790703   0.21979884 
 9100000   0.88323848 -0.00010634466     0.559644  0.018563682            0   0.54108032    1.3138172    1.8734612   -1.7564366 
 9105000   0.94669371 -0.0002473724   0.44080122   0.02232264            0   0.41847858    1.4082069    1.8490081   -6.5946365 
 9110000   0.92436423 -5.7999658e-06   0.47732714  0.026950089            0   0.45037706    1.3749918    1.8523189    1.6543468 
 9115000   0.93663545 4.1367462e-05    0.4398406  0.018761656            0   0.42107894    1.3932452    1.8330858    3.2450952 
 9120000   0.86840638 -4.4930535e-05   0.56332948  0.020607682            0    0.5427218    1.2917545     1.855084   0.32145506 
 9125000   0.93275949 4.8674239e-05   0.46503287 0.0037553664            0    0.4612775    1.3874797    1.8525126    3.5139266 
 9130000   0.93841425 -6.7198465e-05   0.45523586   0.01317925            0   0.44205661    1.3958912     1.851127  -0.44258055 
 9135000   0.93670626 -7.4598574e-05   0.46567317  0.035735019            0   0.42993815    1.3933506    1.8590237  -0.68727425 
 9140000   0.91306916  4.44224e-05   0.51492796  0.002973955            0     0.511954    1.3581904    1.8731183    3.3894029 
 9145000   0.94503157 -6.6538784e-05    0.4595413 0.0048642267            0   0.45467707    1.4057345    1.8652758  -0.40591474 
 9150000   0.93545823 -0.00012830644   0.47785708  0.022393301            0   0.45546378    1.3914941    1.8693512   -2.5101753 
 9155000   0.88457995 -0.00011744929   0.53988457  0.022988567            0   0.51689601    1.3158127    1.8556973   -2.1532385 
 9160000   0.95004654 -2.0215887e-05   0.44916636  0.017179861            0    0.4319865    1.4131942    1.8623606     1.172325 
 9165000   0.97079517 -4.6780221e-05    0.4356881  0.008860213            0   0.42682789    1.4440578    1.8797459   0.28298105 
 9170000   0.92186958 7.0581553e-05   0.51722518 0.0028366303            0   0.51438854     1.371281    1.8885062    4.2976898 
 9175000   0.85742228 5.1631414e-05   0.60603999 0.0020633078            0   0.60397668    1.2754156    1.8814556    3.6438079 
 9180000   0.93898167 -1.311189e-05   0.49302081  0.027674737            0   0.46534607    1.3967352     1.889756    1.4422035 
 9185000   0.95258767 -8.5645806e-05   0.48935779  0.030156811            0   0.45920098    1.4169742     1.906332   -1.0170449 
 9190000   0.96049971 -0.00012167426   0.47716158   0.01551622            0   0.46164536    1.4287433    1.9059049   -2.2472432 
 9195000   0.91773531 4.7118008e-05   0.55124039  0.048753477            0   0.50248691    1.3651313    1.9163717    3.5246663 
 9200000   0.97552947 8.6679299e-05   0.47577637  0.014528488            0   0.46124788    1.4511001    1.9268764    4.8855298 
 9205000   0.99749259 -7.2298261e-06    0.4493702  0.018490237            0   0.43087996    1.4837702    1.9331404    1.6863624 
 9210000   0.96774472 1.6982872e-05   0.50334971  0.027576658            0   0.47577305    1.4395203      1.94287     2.522552 
 9215000   0.94516164 0.00019374447   0.54776605  0.027517021            0   0.52024903    1.4059279     1.953694    8.5668385 
 9220000   0.94772668 0.00017126459   0.54624904   0.04750111            0   0.49874793    1.4097434    1.9559925    7.8018238 
 9225000   0.93568607 -6.928473e-05   0.56819244  0.047965198            0   0.52022724     1.391833    1.9600255  -0.40489331 
 9230000   0.92698319 -0.0001423073   0.59031446   0.03297138            0   0.55734308    1.3788875    1.9692019   -2.8882205 
 9235000   0.95528913 -4.9952928e-05   0.54457086  0.033541992            0   0.51102887    1.4209926    1.9655634    0.2605035 
 9240000    1.0311789 -1.3954197e-05   0.44411377  0.016903369            0    0.4272104    1.5338786    1.9779923    1.5016891 
 9245000    1.0039708 9.2768255e-05   0.50713374  0.020487765            0   0.48664598    1.4934066    2.0005403    5.1670301 
 9250000   0.93056644 0.0001181596   0.59733098  0.026325864            0   0.57100511    1.3842176    1.9815486    6.0147295 
 9255000   0.96328687 -4.0651807e-05   0.54424683  0.011293886            0   0.53295294    1.4328892     1.977136   0.58955437 
 9260000   0.98278193 -6.5970318e-05   0.52137526  0.017889523            0   0.50348574    1.4618881    1.9832634  -0.26852346 
 9265000   0.98666181 3.6345859e-05   0.50204039  0.032672213            0   0.46936817    1.4676594    1.9696998    3.2103052 
 9270000   0.97254787 -1.0982245e-05   0.51710964  0.052684275            0   0.46442536     1.446665    1.9637746     1.588914 
 9275000   0.99500928 1.7508113e-06   0.51397737  0.053658227            0   0.46031914    1.4800763    1.9940537    2.0538147 
 9280000   0.99775667 0.00011669526    0.4986782  0.042108447            0   0.45656975    1.4841631    1.9828412    5.9660395 
 9285000   0.97886621 2.6832549e-05   0.52168756  0.035211685            0   0.48647587    1.4560635     1.977751    2.8936354 
 9290000   0.98906469 -2.7386498e-05   0.50080766  0.025236673            0   0.47557099    1.4712337    1.9720414    1.0372489 
 9295000    0.9690052 -0.00020072288   0.51919477 0.0047532446            0   0.51444152    1.4413952      1.96059    -4.890751 
 9300000   0.99742763 -9.5158974e-05   0.48151714  0.010904135            0     0.470613    1.4836736    1.9651907   -1.2829023 
 9305000   0.99409843 7.3240683e-05   0.49172177  0.023891287            0   0.46783049    1.4787214    1.9704432    4.4703918 
 9310000   0.97425082 -2.0495392e-05   0.52098628  0.031319133            0   0.48966715    1.4491981    1.9701844    1.2706083 
 9315000     1.014647 5.5325862e-05   0.47037917  0.038661563            0    0.4317176    1.5092874    1.9796666    3.8681226 
 9320000    1.0146028 7.9282865e-05   0.49634624  0.015874146            0    0.4804721    1.5092217    2.0055679    4.7117564 
 9325000   0.92506557 2.0878583e-05   0.64133453 0.0051935248            0     0.636141     1.376035    2.0173696    2.7300252 
 9330000    1.0265211 0.00010100136   0.47256972  0.002552628            0   0.47001709    1.5269501    1.9995199    5.4470328 
 9335000   0.97150356 5.7481748e-05   0.55754764 0.0056008173            0   0.55194683    1.4451115    2.0026592    3.9647029 
 9340000   0.96748505 -8.4210269e-05   0.55128508  0.009739343            0   0.54154573     1.439134    1.9904191  -0.88395809 
 9345000     1.016705 1.0661944e-05   0.47019346  0.030123699            0   0.44006977    1.5123486    1.9825421    2.3464698 
 9350000    1.0147289 5.3184085e-05   0.47139219  0.016434246            0   0.45495795    1.5094093    1.9808015    3.7961516 
 9355000   0.96530872 -3.2838984e-05   0.56320832 0.0056108362            0   0.55759748    1.4358967     1.999105   0.87820105 
 9360000   0.95462581 4.7772932e-05   0.54451175  0.042509802            0   0.50200195    1.4200059    1.9645176    3.5951671 
 9365000   0.93568237 0.00010308877   0.55836035   0.07524694            0    0.4831134    1.3918275    1.9501879    5.4689511 
 9370000   0.93658391 4.3050152e-05   0.56723646   0.01013388            0   0.55710258    1.3931686     1.960405    3.4298502 
 9375000    1.0061273 7.5499283e-05    0.4729499   0.01486297            0   0.45808693    1.4966144    1.9695643    4.5466065 
 9380000   0.92139731 5.5693849e-05   0.60015245  0.025951756            0   0.57420069    1.3705785    1.9707309    3.8717477 
 9385000    0.9834906 9.9688161e-05   0.52795263  0.028593372            0   0.49935925    1.4629423    1.9908949    5.3935841 
 9390000    0.9454653 -2.9754858e-05   0.58643584  0.048977768            0   0.53745807    1.4063796    1.9928155   0.97718298 
 9395000   0.98542269 -1.2584469e-05   0.51203989  0.024509578            0   0.48753031    1.4658163    1.9778561    1.5483063 
 9400000   0.99443154 5.4087755e-05   0.47824886  0.002709581            0   0.47553928    1.4792169    1.9574658    3.8036611 
 9405000   0.97586506 -6.3483488e-05   0.51063933  0.002376668            0   0.50826266    1.4515993    1.9622386  -0.20466445 
 9410000   0.98140587 -7.9854296e-05   0.50810711  0.018457149            0   0.48964996    1.4598412    1.9679483  -0.75774498 
 9415000   0.96601752 -0.00012850275    0.5183935  0.018788841            0   0.49960466    1.4369511    1.9553446   -2.4308828 
 9420000   0.92564089 -7.4029063e-05   0.58757259 0.0064904591            0   0.58108213    1.3768908    1.9644634  -0.56239526 
 9425000    1.0290805 1.5563918e-05   0.42772867 0.0042423516            0   0.42348632    1.5307572    1.9584859    2.4897343 
 9430000   0.98620382 6.9296353e-05   0.51128484  0.013677363            0   0.49760748    1.4669782     1.978263    4.3435785 
 9435000    1.0086884 0.00013805335    0.4595835  0.013869566            0   0.44571394    1.5004239    1.9600074    6.6722285 
 9440000   0.94378598 2.8266804e-05   0.56062035  0.013279464            0   0.54734089    1.4038817     1.964502    2.9293422 
 9445000    0.9851497 0.00014085152   0.49132495  0.015846216            0   0.47547874    1.4654102    1.9567351     6.764467 
 9450000   0.95631079 0.00014081858   0.51571003  0.035351459            0   0.48035857    1.4225123    1.9382223    6.7448299 
 9455000   0.92095247 -9.4010987e-05   0.57703574   0.01660175            0   0.56043399    1.3699168    1.9469525   -1.2619558 
 9460000   0.98523686 -8.841012e-05    0.4889806  0.011091562            0   0.47788904    1.4655398    1.9545204   -1.0632117 
 9465000   0.93711438 -1.2039354e-05   0.58130744  0.014922634            0    0.5663848    1.3939576    1.9752651    1.5643218 
 9470000    1.0384209 -0.00010455885   0.44552288  0.017051121            0   0.42847176    1.5446511     1.990174    -1.578768 
 9475000   0.97746083 -2.7441809e-05   0.50515075  0.012967164            0   0.49218358     1.453973    1.9591237    1.0224433 
 9480000   0.93302242 0.00016755288   0.54528159  0.013253606            0   0.53202798    1.3878709    1.9331524    7.6522909 
 9485000   0.94378885 8.3980758e-05   0.51835499 0.0069357261            0   0.51141926    1.4038859    1.9222409    4.7887841 
 9490000   0.97159859 3.7318927e-05   0.46317382 0.0039947273            0    0.4591791    1.4452529    1.9084267    3.1822461 
 9495000    1.0312504 6.0507299e-05   0.36206806 0.0010780654            0      0.36099     1.533985     1.896053    3.9613688 
 9500000   0.96558809 -0.00011333858   0.45463969 0.0024480433            0   0.45219165    1.4363123     1.890952   -1.9776715 
 9505000   0.90270192 4.7225704e-05   0.54767302  0.015150033            0   0.53252298    1.3427691    1.8904421    3.5024128 
 9510000   0.86270044 0.00013018653    0.6018214  0.029518751            0   0.57230265    1.2832669    1.8850883    6.3287886 
 9515000   0.90370601 5.3741016e-05   0.52225714  0.024511057            0   0.49774608    1.3442627    1.8665198    3.7008798 
 9520000   0.96110035 6.3704668e-05     0.456896  0.021013461            0   0.43588254    1.4296368    1.8865328    4.0609854 
 9525000   0.86583324 -0.00011480618   0.58710944  0.013718116            0   0.57339132    1.2879269    1.8750364   -2.0436813 
 9530000   0.94788519 1.2145068e-05   0.48986045 0.0020446533            0   0.48781579    1.4099792    1.8998397    2.3143913 
 9535000   0.93431113 -5.1386021e-05   0.52358653  0.014818784            0   0.50876775    1.3897878    1.9133743   0.15939815 
 9540000   0.94462518 -0.00014851536    0.5133647  0.027302407            0   0.48606229      1.40513    1.9184947   -3.1508296 
 9545000   0.92339208 -6.6787066e-05   0.55794912  0.012120671            0   0.54582845    1.3735457    1.9314948  -0.34817034 
 9550000   0.90782098 1.6303061e-05   0.57310936  0.019922535            0   0.55318682    1.3503837    1.9234931    2.4799709 
 9555000    1.0274089 9.3326256e-05    0.3873157   0.01426515            0   0.37305055    1.5282708    1.9155865    5.1011227 
 9560000   0.97281977 8.7041403e-06   0.46955507 0.0035348288            0   0.46602024    1.4470694    1.9166245    2.2137258 
 9565000   0.92181452 -6.0462392e-05   0.54118815 0.0097894569            0   0.53139869    1.3711991    1.9123872  -0.15139572 
 9570000   0.93583096 2.0236378e-05   0.52341327  0.014131566            0   0.50928171    1.3920486    1.9154618    2.6061968 
 9575000   0.93392489 4.6646271e-05    0.5300078  0.012958606            0   0.51704919    1.3892133    1.9192211    3.5114138 
 9580000   0.95583535 -2.3322523e-05   0.50259113  0.031583812            0   0.47100732    1.4218051    1.9243962    1.1283208 
 9585000   0.87772422 7.161669e-05   0.61219137  0.038376477            0   0.57381489    1.3056148    1.9178062    4.3623225 
 9590000   0.92657086 -8.0913561e-05   0.51117786  0.016405421            0   0.49477244    1.3782742     1.889452  -0.87239752 
 9595000   0.89870384 -0.00017211952   0.55414461  0.014502882            0   0.53964173     1.336822    1.8909666   -3.9840462 
 9600000   0.94468968 -7.2781994e-05   0.50141709  0.039155653            0   0.46226144    1.4052259     1.906643  -0.57764907 
 9605000   0.96333544 5.1250737e-05   0.51767702   0.05144885            0   0.46622817    1.4329615    1.9506385     3.699997 
 9610000   0.95108409 0.00010915424   0.53843921  0.031555816            0   0.50688339    1.4147376    1.9531768     5.678975 
 9615000   0.99137235 -9.4501505e-05   0.48340282  0.012720794            0   0.47068203    1.4746664    1.9580692   -1.2675822 
 9620000   0.96896085 -8.3649157e-05   0.55499339  0.012530938            0   0.54246245    1.4413293    1.9963227  -0.85890192 
 9625000   0.96697468 3.7331006e-05   0.56220848  0.016885612            0   0.54532287    1.4383748    2.0005833     3.274815 
 9630000    1.0240671 -9.9023692e-06   0.44157323   0.01301521            0   0.42855802    1.5232999    1.9648731    1.6268722 
 9635000   0.92806335 2.4462602e-05   0.57979928  0.034446307            0   0.54535298    1.3804942    1.9602935    2.7952837 
 9640000   0.99583631 0.00014888357   0.45088496  0.033753616            0   0.41713134    1.4813065    1.9321915    7.0140839 
 9645000    0.9084537 4.4521522e-05   0.56074942  0.040916508            0   0.51983291    1.3513249    1.9120743    3.4317422 
 9650000    0.9557621 2.8950288e-06   0.48556951  0.033820964            0   0.45174854    1.4216961    1.9072656    2.0060826 
 9655000   0.94265494 1.518719e-05   0.50210079  0.049647449            0   0.45245334    1.4021992       1.9043    2.4226894 
 9660000   0.87502981 1.8746952e-05   0.56511192  0.032445185            0   0.53266673    1.3016068    1.8667188    2.5066147 
 9665000   0.87788904 -2.9376617e-05   0.57420848  0.030908917            0   0.54329956    1.3058599    1.8800684   0.87734655 
 9670000   0.96818101 4.4651703e-05    0.4665865   0.02399419            0   0.44259231    1.4401692    1.9067557    3.4308672 
 9675000   0.97621897 -1.5891464e-05   0.46582964   0.02844405            0   0.43738559    1.4521257    1.9179554    1.3755267 
 9680000   0.91462966 -0.00020284698   0.56620715   0.01840586            0   0.54780129    1.3605116    1.9267188   -4.9971248 
 9685000   0.96684666 -7.3307604e-05   0.46155064  0.016233951            0   0.44531669    1.4381844     1.899735  -0.60249785 
 9690000   0.96567846 5.4435943e-05   0.47163008  0.021327853            0   0.45030222    1.4364467    1.9080768     3.766157 
 9695000   0.93604859 -1.84897e-05   0.50570395  0.010434836            0   0.49526911    1.3923723    1.8980762    1.2669611 
 9700000   0.98710901 -5.8934423e-05   0.42999865  0.011782151            0    0.4182165    1.4683247    1.8983233    -0.113305 
 9705000    0.9695341 -4.6386596e-05   0.46512525 0.0088309288            0   0.45629432     1.442182    1.9073072   0.32397807 
 9710000   0.86630062 6.5760806e-06   0.61687257 0.0070701416            0   0.60980243    1.2886222    1.9054947    2.1299583 
 9715000   0.90792859 -3.1599885e-06   0.54974559  0.019330543            0   0.53041504    1.3505438    1.9002894    1.7924284 
 9720000   0.94416565 1.2673711e-05   0.49246818  0.011295841            0   0.48117234    1.4044464    1.8969146    2.3295106 
 9725000   0.90502356 -3.9771189e-05   0.55826018 0.0052530484            0   0.55300713    1.3462225    1.9044827   0.54695947 
 9730000    0.9337445 -0.0001016628    0.5255714 0.0041500948            0   0.52142131    1.3889449    1.9145163    -1.555574 
 9735000   0.98911245 -6.4516333e-05    0.4110909  0.009720206            0   0.40137069    1.4713048    1.8823957  -0.31976183 
 9740000   0.96397303 4.4151124e-05   0.46586082  0.016744012            0   0.44911681    1.4339099    1.8997707    3.4067957 
 9745000   0.93823454 4.1279778e-05   0.51801628  0.013461843            0   0.50455444    1.3956239    1.9136402    3.3226566 
 9750000   0.94599529 -0.00012138819   0.50084041  0.023785185            0   0.47705522     1.407168    1.9080084   -2.2353752 
 9755000   0.93294716 -7.231567e-05   0.51962201  0.065931706            0    0.4536903    1.3877589    1.9073809  -0.56099396 
 9760000   0.96222234 4.8402516e-05   0.47429139  0.041569168            0   0.43272222    1.4313057    1.9055971    3.5577363 
 9765000   0.98789026 8.6206615e-05   0.46345408  0.020024281            0    0.4434298    1.4694868    1.9329408      4.87546 
 9770000   0.99137198 0.00010543563   0.48157424  0.012510179            0   0.46906406    1.4746658    1.9562401    5.5551094 
 9775000   0.97714323 5.1069458e-05   0.49025453  0.019249396            0   0.47100513    1.4535005    1.9437551    3.6869259 
 9780000     1.005204 0.00010895924   0.44258228  0.037982604            0   0.40459968     1.495241    1.9378233    5.6569655 
 9785000   0.92650055 0.00018311317    0.5642147  0.035847348            0   0.52836735    1.3781696    1.9423843    8.1926472 
 9790000   0.94629126 -2.0174904e-05   0.52448298  0.038166022            0   0.48631696    1.4076083    1.9320912    1.2434545 
 9795000   0.99626312 -9.4189527e-05   0.48356726 0.0077053998            0   0.47586186    1.4819414    1.9655087   -1.2494939 
 9800000   0.95544305 -2.5574614e-05   0.51283988 0.0021759463            0   0.51066394    1.4212215    1.9340614    1.0611146 
 9805000   0.97145913 -6.8052821e-06     0.476812 0.0020551183            0   0.47475688    1.4450455    1.9218575    1.6895705 
 9810000    0.9535145 -8.8732762e-05   0.49133205  0.007514704            0   0.48381735    1.4183528    1.9096849   -1.1190601 
 9815000    1.0187999 -2.4821062e-05   0.39901725  0.026386094            0   0.37263115    1.5154648    1.9144821    1.0672565 
 9820000    1.0049662 -3.023468e-05   0.44124209  0.021122926            0   0.42011917    1.4948873    1.9361294   0.90411899 
 9825000   0.90386415 1.9869615e-05   0.61666829  0.038597711            0   0.57807058    1.3444979    1.9611662    2.6393824 
 9830000   0.99028192 0.00011494427   0.49186111  0.024427615            0    0.4674335    1.4730444    1.9649055    5.8883365 
 9835000    1.0144346 3.7658543e-05   0.45117544 0.0097564482            0   0.44141899    1.5089715    1.9601469    3.2455585 
 9840000    1.0219457 -7.64148e-05   0.42724739  0.022114197            0   0.40513319    1.5201443    1.9473917   -0.6609002 
 9845000    1.0214458 -8.3852799e-05   0.45019822 0.0082205203            0    0.4419777    1.5194006    1.9695988  -0.89257669 
 9850000   0.98776905 -1.7953161e-06   0.53240769 0.00029872161            0   0.53210897    1.4693065    2.0017142     1.940434 
 9855000    1.0279706 2.0607966e-05   0.44012134 0.00034899216            0   0.43977235    1.5291063    1.9692276    2.6726462 
 9860000    1.0494098 -4.5142069e-06   0.41061786 0.00086708715            0   0.40975077     1.560997    1.9716149      1.81753 
 9865000    1.0563223 4.1787359e-05   0.42781234 0.0033594859            0   0.42445285    1.5712794    1.9990918    3.4254336 
 9870000    1.0418393 -9.6194445e-05   0.48431436 0.0042324447            0   0.48008191     1.549736    2.0340503   -1.2493867 
 9875000    1.0155647 -0.0001381289   0.49202046   0.02516318            0   0.46685728    1.5106525    2.0026729   -2.7121269 
 9880000    1.0425195 8.3040964e-05   0.43763619  0.015830792            0    0.4218054    1.5507478     1.988384    4.8228489 
 9885000    1.0421409 0.0001266169   0.43222007  0.011399408            0   0.42082067    1.5501846    1.9824046    6.3042617 
 9890000    0.9948456 -6.8604203e-05   0.49696305    0.0180161            0   0.47894695    1.4798328    1.9767959  -0.36489426 
 9895000    1.0445109 -4.1614011e-05    0.4468587  0.013188615            0   0.43367009      1.55371    2.0005687   0.58014376 
 9900000    1.0562362 0.00015099098   0.44986911 0.0099890057            0    0.4398801    1.5711513    2.0210204     7.174846 
 9905000    1.0420852 5.4898953e-05   0.46401404  0.035106571            0   0.42890747    1.5501017    2.0141157        3.888 
 9910000      1.03901 -0.00010788255   0.45756964  0.015810628            0   0.44175901    1.5455274     2.003097    -1.679294 
 9915000   0.99857559 1.1416068e-05   0.53246947  0.011494122            0   0.52097535    1.4853812    2.0178507    2.4075191 
 9920000     1.026877 9.2285778e-05   0.46252042  0.024668082            0   0.43785234    1.5274795    1.9899999    5.1400212 
 9925000     0.970464 -3.0389705e-05   0.56776957  0.052467542            0   0.51530203    1.4435652    2.0113348   0.97403282 
 9930000    1.0254535 9.9258438e-05   0.50818317  0.030724021            0   0.47745914    1.5253621    2.0335452    5.4215666 
 9935000    1.0078747 -1.9221614e-05   0.53074863  0.018066364            0   0.51268226    1.4992136    2.0299622    1.3738644 
 9940000    1.0705357 -8.2472443e-05   0.45412072  0.011668023            0    0.4424527    1.5924218    2.0465425  -0.76851686 
 9945000   0.99210521 6.8964603e-05   0.56672313  0.036247137            0   0.53047599    1.4757565    2.0424796    4.3964714 
 9950000    1.0113189 5.3153286e-06   0.52158465  0.050688105            0   0.47089654    1.5043368    2.0259214    2.2073513 
 9955000    1.0261241 -0.00010157521   0.49073992  0.012988694            0   0.47775122    1.5263595    2.0170995   -1.4500009 
 9960000    1.0468105 -6.4867452e-05   0.49010353  0.015539034            0    0.4745645    1.5571307    2.0472342  -0.16690818 
 9965000    1.0671259 2.5974234e-05   0.43623948  0.015431824            0   0.42080766    1.5873497    2.0235892    2.9101764 
 9970000   0.99719276 -5.204477e-05   0.51712089 0.0047710705            0   0.51234982    1.4833242    2.0004451   0.22398362 
 9975000    1.0817033 -9.1902586e-05    0.3878999   0.01081107            0   0.37708883    1.6090336    1.9969335   -1.1400081 
 9980000   0.98474773 -1.2434338e-05   0.52983631  0.050103894            0   0.47973242    1.4648122    1.9946486    1.5702231 
 9985000    1.0269812 -0.0001160163   0.44644762  0.027014991            0   0.41943263    1.5276346    1.9740822   -1.9859407 
 9990000    1.0568812 -8.1520501e-05   0.40235937   0.01484883            0   0.38751054    1.5721108    1.9744702  -0.80809624 
 9995000    1.0536965 -4.2045386e-05   0.37523535 0.0093574992            0   0.36587785    1.5673735    1.9426089   0.50745968 
10000000   0.96632802 0.00010313821    0.4834565  0.010406975            0   0.47304953    1.4374129    1.9208694    5.4413202 
10005000    1.0287395 3.6238917e-05    0.3814645   0.01747107            0   0.36399343      1.53025    1.9117145    3.1486695 
10010000   0.98595088 -0.00011549365   0.42043525 0.0040451366            0   0.41639011    1.4666019    1.8870372   -2.0551462 
10015000    0.9589498 5.6148472e-05    0.4621485  0.019942311            0   0.44220619    1.4264378    1.8885863    3.8051208 
10020000   0.96316699 -2.5865861e-05   0.46589597 0.0059254768            0    0.4599705    1.4327109    1.8986069    1.0157188 
10025000    1.0213909 -3.4589027e-05   0.36768731 0.0048898292            0   0.36279748     1.519319    1.8870063   0.70636749 
10030000   0.95757886 -5.6622535e-05   0.43689309  0.013901053            0   0.42299203    1.4243986    1.8612916 -0.071424214 
10035000   0.94921171 -5.200122e-05   0.43578091  0.016906904            0   0.41887401    1.4119524    1.8477333  0.072758363 
10040000   0.90468103 0.00013386805   0.51083206  0.060523483            0   0.45030858     1.345713    1.8565451    6.4259079 
10045000   0.93335438 -5.4276476e-05   0.48470401  0.044348184            0   0.44035583    1.3883646    1.8730686  0.020431593 
10050000   0.98011249 -0.00011581454   0.43189688  0.029640345            0   0.40225654    1.4579173    1.8898142   -2.0633221 
10055000     0.950856 -0.00010927614   0.47841719  0.040790784            0   0.43762641    1.4143983    1.8928155   -1.8371433 
10060000   0.99548954 4.5263868e-05   0.43138091  0.033096314            0   0.39828459    1.4807907    1.9121716    3.4571783 
10065000   0.94421962 4.0403741e-05   0.49250181  0.019697495            0   0.47280432    1.4045267    1.8970285    3.2761429 
10070000   0.97537633 -0.00016959998   0.43575938  0.014080787            0   0.42167859    1.4508723    1.8866317    -3.902381 
10075000    1.0206202 -5.1904944e-05   0.37756599 0.0052391211            0   0.37232687    1.5181726    1.8957386   0.12404979 
10080000   0.96801023 -1.2453189e-06   0.43237407 0.0073576788            0   0.42501639    1.4399152    1.8722893    1.8297824 
10085000   0.93783838 8.4619025e-05   0.43997838  0.034760576            0    0.4052178    1.3950346     1.835013    4.7233424 
10090000   0.94341354 3.0156267e-05   0.43755546  0.031501863            0   0.40605359    1.4033276    1.8408831     2.870217 
10095000   0.99117914 -1.8209031e-05   0.39811961  0.015473635            0   0.38264597     1.474379    1.8724986    1.2509637 
10100000   0.95573495 -9.6323437e-05   0.45377858  0.021597739            0   0.43218084    1.4216557    1.8754343   -1.4124057 
10105000   0.89123729 -3.6528846e-05    0.5554452   0.02957503            0   0.52587017    1.3257155    1.8811607    0.6343094 
10110000   0.99619389 1.9846703e-05   0.41261846  0.037304074            0   0.37531438    1.4818384    1.8944569     2.571891 
10115000   0.98431679 5.5650602e-05   0.42592915  0.020363109            0   0.40556604    1.4641712    1.8901004    3.7896409 
10120000   0.95904054 -7.116628e-05   0.47026415 0.0047109558            0    0.4655532    1.4265728     1.896837  -0.53230541 
10125000   0.95883496 -7.2274136e-05   0.46003653  0.010261537            0   0.44977499     1.426267    1.8863035  -0.58065363 
10130000   0.95263453 2.4446951e-05   0.45854578  0.026941323            0   0.43160446    1.4170439    1.8755896    2.7100456 
10135000   0.95741008 -3.7384682e-05   0.44817967  0.027040632            0   0.42113903    1.4241475    1.8723272   0.59626335 
10140000   0.99145944 1.9480182e-05   0.39853734  0.015989089            0   0.38254825    1.4747959    1.8733333    2.5382568 
10145000   0.93297218 -3.9415253e-05   0.46063986  0.021153214            0   0.43948664    1.3877961     1.848436   0.50306199 
10150000   0.95004739 -8.209585e-06   0.44510979 0.0084997473            0   0.43661004    1.4131955    1.8583053    1.5780848 
10155000   0.90120998 1.4579085e-05   0.50956999  0.013842251            0   0.49572774    1.3405498    1.8501198    2.3477526 
10160000   0.93324444 -4.554006e-05   0.42084492  0.014193702            0   0.40665122    1.3882011     1.809046     0.254612 
10165000   0.87403059 -0.00010620843   0.48906625  0.013299941            0   0.47576631    1.3001205    1.7891868    -1.836061 
10170000   0.90705559 7.8720342e-06   0.43315042  0.010422154            0   0.42272826    1.3492452    1.7823956    2.0510944 
10175000   0.90136232 4.0927878e-05   0.44155983  0.031665274            0   0.40989455    1.3407764    1.7823363    3.1793412 
10180000   0.85906832 -3.9619146e-05   0.50528323  0.029074829            0    0.4762084    1.2778641    1.7831474   0.43081384 
10185000   0.92989318 -3.0888138e-05   0.40630197   0.03181709            0   0.37448488    1.3832161    1.7895181   0.73520298 
10190000   0.84913061 -4.8505235e-05   0.51927317  0.010840898            0   0.50843227    1.2630818    1.7823549    0.1267096 
10195000   0.89102598 -3.0811307e-05   0.45219547 0.0071448478            0   0.44505062    1.3254011    1.7775966   0.72590398 
10200000   0.91082822 -7.2098015e-05    0.4511559  0.038027641            0   0.41312826     1.354857    1.8060129   -0.6549327 
10205000   0.92912649 -4.4788534e-05   0.42909957  0.011749868            0    0.4173497    1.3820757    1.8111752   0.28239326 
10210000   0.93672362 8.6236118e-05   0.40776473  0.018369178            0   0.38939556    1.3933764    1.8011411    4.7446673 
10215000   0.89551691 -5.3900465e-05   0.45969155  0.004445837            0   0.45524572    1.3320814     1.791773 -0.048029574 
10220000   0.92199259 -0.00013734597   0.42477624  0.021436222            0   0.40334002     1.371464    1.7962402   -2.8918357 
10225000   0.89687439 5.4264013e-05   0.46917324  0.016285466            0   0.45288778    1.3341007    1.8032739    3.6554856 
10230000   0.88715527 -5.8891794e-05   0.49384627  0.029935004            0   0.46391127    1.3196435    1.8134897  -0.19668348 
10235000   0.95305968 -0.00017544186   0.38766991  0.013693886            0   0.37397603    1.4176763    1.8053462   -4.1830693 
10240000   0.91257564 4.0149452e-05   0.42391222  0.033587255            0   0.39032497    1.3574563    1.7813685    3.1518031 
10245000   0.90625777 6.3514768e-06   0.42333723  0.032754126            0   0.39058311    1.3480584    1.7713957    1.9881927 
10250000   0.88548087 -3.1757263e-05   0.42714561  0.019384033            0   0.40776158    1.3171528    1.7442984   0.66031716 
10255000    0.8625316 9.0507019e-05   0.45787242  0.019794495            0   0.43807792    1.2830158    1.7408882    4.8301944 
10260000   0.89440957 -6.7344059e-05   0.43031013  0.015812193            0   0.41449793    1.3304342    1.7607444  -0.53793285 
10265000    0.8678574 -9.8356613e-05    0.4502673  0.019422074            0   0.43084522    1.2909379    1.7412052   -1.6160339 
10270000    0.8809689 2.5215597e-05   0.42006958   0.01593095            0   0.40413863    1.3104412    1.7305108    2.5912032 
10275000    0.9530307 -8.6775154e-05   0.29944929 0.0074821531            0   0.29196713    1.4176332    1.7170824   -1.2448428 
10280000   0.85893104 -6.8671379e-05   0.45604932  0.010028034            0   0.44602128    1.2776599    1.7337092  -0.61027384 
10285000   0.87784773 0.00016470997   0.40851232 0.0062446661            0   0.40226766    1.3057985    1.7143108    7.3364111 
10290000    0.8819955 0.00019255671   0.40827353 0.0048929701            0   0.40338056    1.3119683    1.7202418    8.2928442 
10295000   0.85265561 -4.4714303e-05   0.47025422 0.0064864955            0   0.46376772    1.2683252    1.7385794   0.21233121 
10300000   0.90610201 1.6851941e-05   0.39451784  0.029074022            0   0.36544382    1.3478267    1.7423446    2.3175575 
10305000   0.86560071 -8.0271265e-05   0.44448875  0.016532523            0   0.42795623    1.2875811    1.7320698    -1.007856 
10310000   0.83452315 -4.9641384e-05    0.4863031  0.034141862            0   0.45216124    1.2413532    1.7276563  0.033230367 
10315000   0.83971961 9.0290596e-05   0.47446045  0.019071526            0   0.45538893    1.2490829    1.7235434    4.8054624 
10320000   0.86957985 0.00018213356    0.4157988  0.019444167            0   0.39635463       1.2935    1.7092988    7.9261244 
10325000   0.84279893 3.5432085e-05   0.47821173  0.016891025            0    0.4613207    1.2536634    1.7318751    2.9412903 
10330000   0.88099876 2.5170476e-05   0.42052342 0.0072694903            0   0.41325393    1.3104857    1.7310091    2.5901613 
10335000   0.87756003 -8.9543408e-05   0.42445779 0.0099746625            0   0.41448313    1.3053705    1.7298283   -1.3265867 
10340000   0.86326976 -0.00014151448   0.43780409  0.022014105            0   0.41578999    1.2841138    1.7219179    -3.108443 
10345000   0.85986187 -6.2329153e-05   0.44377413  0.010360601            0   0.43341353    1.2790445    1.7228187  -0.40468309 
10350000   0.90176766 4.6618666e-05   0.38247943  0.027299183            0   0.35518024    1.3413794    1.7238588    3.3151093 
10355000    0.8745927 6.8625533e-05   0.42755668  0.018335343            0   0.40922134    1.3009566    1.7285133    4.0709315 
10360000    0.8442314 6.5476363e-05   0.46132561  0.014736001            0   0.44658961    1.2557942    1.7171198    3.9520463 
10365000   0.81304917 -7.8954757e-05   0.49889366  0.047476315            0   0.45141735    1.2094106    1.7083043  -0.98668475 
10370000   0.87447843 -0.00012639227   0.40875011  0.043462404            0   0.36528771    1.3007867    1.7095368   -2.6046527 
10375000   0.85935694 1.3404988e-05   0.44404776 0.0036066014            0   0.44044115    1.2782934    1.7223412    2.1798981 
10380000   0.88233354 -4.3453337e-05   0.39747026 0.0064970493            0   0.39097321    1.3124711    1.7099414   0.22673418 
10385000   0.83423277 -6.8936316e-05   0.47613469  0.013199187            0    0.4629355    1.2409213    1.7170559  -0.63597031 
10390000   0.89913836  9.30624e-05   0.38953757  0.021898564            0     0.367639    1.3374683    1.7270059    4.9035358 
10395000   0.83726045 0.00020369366   0.45867338   0.01054394            0   0.44812944    1.2454249    1.7040983    8.6568418 
10400000   0.86334708 9.1721332e-05   0.43921466 0.0049984555            0   0.43421621    1.2842288    1.7234434    4.8541982 
10405000   0.85040896 7.9655145e-05     0.440609  0.015791247            0   0.42481775    1.2649833    1.7055923    4.4244879 
10410000   0.86273897 -3.4258825e-08   0.42718198  0.047557678            0    0.3796243    1.2833242    1.7105062    1.7093368 
10415000   0.85742468 4.0938715e-05   0.45759504   0.03258944            0    0.4250056    1.2754192    1.7330142    3.1303891 
10420000   0.85953329 8.458453e-05   0.44312904  0.038074483            0   0.40505455    1.2785558    1.7216848    4.6088367 
10425000   0.82988432 5.836718e-05    0.4861716  0.029912534            0   0.45625906    1.2344529    1.7206245    3.7128909 
10430000   0.88870475 2.3081222e-05   0.38982239  0.022439916            0   0.36738248    1.3219483    1.7117707    2.4996098 
10435000   0.84342445 -9.9125052e-05   0.45554481  0.015212842            0   0.44033196    1.2545939    1.7101387   -1.6733298 
10440000   0.88163273 -8.3151019e-05   0.40373832  0.010606797            0   0.39313152    1.3114287     1.715167   -1.1230544 
10445000    0.8511848 -0.00015877292   0.45123429  0.022362559            0   0.42887173    1.2661374    1.7173717   -3.7020773 
10450000   0.85594749 1.3092244e-05   0.41228284  0.011403625            0   0.40087921    1.2732219    1.6855047    2.1323867 
10455000   0.82644302 0.00011496235    0.4502332  0.026863514            0   0.42336969     1.229334    1.6795672    5.6036155 
10460000   0.83336031 -6.0904569e-05   0.40800869   0.02240435            0   0.38560434    1.2396235    1.6476321   -0.4312438 
10465000   0.85355431 6.5325295e-05   0.39417937   0.01968825            0   0.37449112     1.269662    1.6638414    3.8936115 
10470000   0.81082856 -0.00011332806    0.4333058  0.034648179            0   0.39865762    1.2061075    1.6394133   -2.2288512 
10475000   0.81963884 -4.2349155e-05   0.42455801  0.040594527            0   0.38396349    1.2192128    1.6437708   0.19825296 
10480000   0.84382786 -7.1206444e-05   0.40388435  0.013607864            0   0.39027649    1.2551939    1.6590783  -0.77143498 
10485000   0.85097795 -2.6897609e-05   0.39640709 0.00034313578            0   0.39606395    1.2658297    1.6622368   0.74413173 
10490000   0.88054202 1.8537154e-06   0.37654093 0.0012019481            0   0.37533899    1.3098063    1.6863472    1.7496207 
10495000   0.85912321 8.7919656e-05   0.39651303  0.013993182            0   0.38251985    1.2779458    1.6744588    4.6754497 
10500000   0.84641714 1.5881015e-06    0.4193598  0.030855822            0   0.38850398    1.2590455    1.6784053    1.7326125 
10505000   0.84103901 -5.6767453e-05   0.44074769  0.019455316            0   0.42129237    1.2510455    1.6917932  -0.24586918 
10510000   0.89041076 -0.00016888445   0.37957688  0.011161585            0   0.36841529     1.324486    1.7040629   -4.0605262 
10515000   0.87383568 3.1164435e-05   0.40529368 0.0089638516            0   0.39632983    1.2998306    1.7051243    2.7688703 
10520000   0.84775252 8.6646429e-05   0.44407094  0.016574655            0   0.42749628    1.2610319    1.7051028    4.6626342 
10525000   0.85843709 -4.2499169e-05   0.40686975  0.017733522            0   0.38913623    1.2769252    1.6837949   0.23315663 
10530000   0.85745561  4.80293e-05   0.41384581  0.015874388            0   0.39797142    1.2754652     1.689311    3.3287111 
10535000   0.87836429 9.4419465e-05   0.40150154  0.022726982            0   0.37877456    1.3065669    1.7080684    4.9309195 
10540000   0.81299601 -1.3350556e-05   0.47924282  0.053023413            0    0.4262194    1.2093316    1.6885744    1.2328754 
10545000   0.83815162 -2.8961684e-05    0.4104978 0.0092088375            0   0.40128896    1.2467505    1.6572483   0.66868953 
10550000   0.82080761 -3.605821e-05   0.46302519 0.0081785226            0   0.45484667    1.2209513    1.6839765    0.4531896 
10555000   0.84382933 -6.1877492e-06   0.43621847 0.0065527558            0   0.42966572    1.2551961    1.6914146    1.4802061 
10560000   0.85483418 -4.957273e-05   0.41749938 0.0075376689            0   0.40996171    1.2715658    1.6890652 -0.0030173037 
10565000   0.84166211 -0.00010309859   0.43214645  0.010759664            0   0.42138679    1.2519724    1.6841188   -1.8349796 
10570000   0.85378412 7.3190795e-06   0.40938006  0.021487564            0    0.3878925    1.2700039    1.6793839    1.9292085 
10575000   0.83901662 4.7343855e-05    0.4285317  0.019140811            0   0.40939089    1.2480372    1.6765689    3.2925725 
10580000   0.90100959 6.5886544e-05   0.34223398 0.0056007625            0   0.33663321    1.3402518    1.6824857    3.9314131 
10585000   0.85121547 2.6540879e-05   0.40931951  0.022645285            0   0.38667422     1.266183    1.6755025    2.5814312 
10590000   0.85847653 -3.7172141e-05   0.42025096  0.015544089            0   0.40470688    1.2769838    1.6972348   0.42842572 
10595000   0.86603614 -7.2350216e-05   0.38757601   0.02657023            0   0.36100578    1.2882288    1.6758048  -0.79374928 
10600000   0.81904142 -7.3176842e-05    0.4581302  0.018599079            0   0.43953112    1.2183241    1.6764543  -0.82131522 
10605000   0.86840472 -0.00013554041   0.37586995 0.0041785425            0   0.37169141     1.291752     1.667622   -2.9588241 
10610000   0.84429679 -9.2428539e-05   0.40911867  0.007380332            0   0.40173833    1.2558915    1.6650101    -1.489884 
10615000   0.83553939 -0.00016931571   0.44017912  0.013248031            0   0.42693109    1.2428648     1.683044   -4.0962655 
10620000   0.84504112 9.5074874e-05   0.45220624 0.0053011144            0   0.44690513    1.2569987    1.7092049    4.9544273 
10625000   0.83037093 8.5143275e-06   0.46555123 0.0011723791            0   0.46437885    1.2351768     1.700728    1.9913504 
10630000   0.88781384 2.0053431e-05   0.39330794  0.001868781            0   0.39143916    1.3206231     1.713931    2.3984215 
10635000   0.86152683 -0.00010578936   0.43488417 0.0089210273            0   0.42596314    1.2815212    1.7164053   -1.8945382 
10640000   0.85239331 -9.6812069e-06   0.41583369 0.0099068527            0   0.40592684     1.267935    1.6837687    1.3533169 
10645000   0.86136212 8.2711272e-06     0.412124   0.01004978            0   0.40207422    1.2812762    1.6934002    1.9757213 
10650000   0.84196659 8.5771362e-05   0.44140818  0.018426433            0   0.42298175    1.2524253    1.6938335     4.621496 
10655000   0.92881122 8.1995815e-05   0.31026268 0.0072193715            0   0.30304331    1.3816067    1.6918694    4.4906599 
10660000   0.87861549 0.00015156278   0.36654692 0.0046486364            0   0.36189828    1.3069405    1.6734875    6.8468302 
10665000   0.84217448 -0.0001167667   0.40426987 0.0021342273            0   0.40213564    1.2527345    1.6570044   -2.3286323 
10670000   0.83323007 -7.1106945e-05   0.41343756  0.012458642            0   0.40097892    1.2394297    1.6528673  -0.77424976 
10675000    0.8466707 -1.9413827e-05   0.41524204  0.027973888            0   0.38726815    1.2594227    1.6746647    1.0120061 
10680000   0.84690608 4.4605916e-05   0.42692416  0.011324545            0   0.41559961    1.2597728     1.686697    3.2092455 
10685000   0.89297515 -5.8218674e-05   0.35843712 0.0049470895            0   0.35349003    1.3283005    1.6867376  -0.30045975 
10690000   0.84625417 -3.7300215e-06   0.38938104  0.010091425            0   0.37928962    1.2588031    1.6481841    1.5208661 
10695000   0.85147294 -3.463963e-05   0.39552215  0.011191691            0   0.38433046     1.266566    1.6620881   0.47972209 
10700000    0.8519536 5.3501466e-05   0.39463031 0.0037502111            0    0.3908801     1.267281    1.6619113    3.4880947 
10705000   0.83167946 -8.4124477e-06   0.41849061 0.0034893691            0   0.41500124    1.2371232    1.6556138    1.3684689 
10710000   0.86065587 -6.4826949e-05   0.39685068 0.0021639119            0   0.39468677    1.2802256    1.6770763  -0.53568356 
10715000   0.86410931 0.00014190608    0.3937696 0.0066434187            0   0.38712618    1.2853626    1.6791322    6.5228597 
10720000   0.83252922 -8.2701145e-05   0.44094295  0.011985827            0   0.42895713    1.2383872    1.6793302   -1.1435356 
10725000   0.87844404 6.9807762e-05   0.37187679 0.0023621313            0   0.36951466    1.3066855    1.6785623    4.0613339 
10730000   0.90259477 2.6582443e-05   0.34223761 0.0023547782            0   0.33988284    1.3426097    1.6848473    2.5921947 
10735000    0.8833779 2.4100861e-05   0.37669083 0.0024623081            0   0.37422852    1.3140246    1.6907155    2.5133582 
10740000   0.90158818 1.9257204e-05   0.37112256 0.00084715417            0   0.37027541    1.3411124     1.712235    2.3695475 
10745000   0.90240917 -5.8094153e-05   0.37450428 0.0040315784            0    0.3704727    1.3423336    1.7168379  -0.26610916 
10750000   0.90689903 2.8754338e-05   0.39316982  0.025837443            0   0.36733237    1.3490123    1.7421821    2.7236635 
10755000   0.87814454 -8.3658168e-05   0.41937234  0.012488422            0   0.40688392      1.30624    1.7256124   -1.1299198 
10760000    0.8782437 7.332222e-05    0.4031762 0.00013602158            0   0.40304018    1.3063875    1.7095637    4.2122955 
10765000   0.87513766 -2.3162575e-05   0.41878188 0.00021280562            0   0.41856907    1.3017673    1.7205491   0.92993324 
10770000   0.89535359 9.4583199e-05   0.40414949 0.00074634564            0   0.40340315    1.3318385     1.735988    4.9644278 
10775000   0.91566625 -3.3834731e-06   0.36638352 0.0041333643            0   0.36225015    1.3620535    1.7284371    1.6129478 
10780000   0.90545775 -5.0602278e-05   0.39462133  0.018907307            0   0.37571403    1.3468684    1.7414897  0.014265305 
10785000   0.86818949 -0.00014449906   0.46865022  0.036782585            0   0.43186763    1.2914319    1.7600821   -3.1721526 
10790000    0.9184804 -1.5594049e-05   0.39671261  0.023312385            0   0.37340022    1.3662396    1.7629522    1.2306753 
10795000   0.89698877 -0.00013262695   0.43997798   0.01177078            0    0.4282072    1.3342708    1.7742488   -2.7527511 
10800000   0.90897568 -2.6321364e-05   0.40221993 0.0075972873            0   0.39462264    1.3521013    1.7543213   0.85588538 
10805000   0.96346034 -4.5059215e-05   0.33296881  0.012514017            0    0.3204548    1.4331472    1.7661161   0.22809485 
10810000   0.96381914 3.8460488e-05   0.33713729 0.0086318936            0    0.3285054     1.433681    1.7708183    3.0836029 
10815000   0.92647642 -7.4107214e-05   0.36822691 0.0067845616            0   0.36144235    1.3781337    1.7463606  -0.78316565 
10820000   0.94873118 -0.00010290703   0.36393397 0.0078914048            0   0.35604256    1.4112376    1.7751716   -1.7373883 
10825000    0.9429771 4.5297807e-06   0.38675093 0.0054984828            0   0.38125245    1.4026784    1.7894294    1.9440459 
10830000   0.95674399 0.00013830245   0.36658143  0.011374394            0   0.35520703    1.4231567    1.7897381    6.5104618 
10835000    0.9537012 -3.3245316e-06   0.37816058  0.035277279            0    0.3428833    1.4186305    1.7967911    1.6833138 
10840000   0.95931104 -4.8597644e-05   0.37092822  0.016832502            0   0.35409572    1.4269752    1.7979034    0.1391038 
10845000    0.9119238 -8.1508333e-05   0.46264331  0.027421412            0    0.4352219    1.3564866      1.81913  -0.96302114 
10850000   0.94691826 0.00015329113   0.41992408  0.020162461            0   0.39976162    1.4085409     1.828465    7.0608022 
10855000    1.0036262 5.2359607e-05   0.33836896  0.015050083            0   0.32331888    1.4928939    1.8312629    3.6184708 
10860000   0.93343944 -5.1034307e-05   0.45094787  0.017550004            0   0.43339786    1.3884912     1.839439  0.097468028 
10865000   0.96691122 -0.00010880152   0.38509919 0.0084353246            0   0.37666387    1.4382804    1.8233796    -1.890379 
10870000   0.93156634 2.0879907e-06   0.42172406  0.021871924            0   0.39985214    1.3857049     1.807429    1.8786991 
10875000   0.89967937 7.7556907e-05    0.4781848  0.050743757            0   0.42744104    1.3382731    1.8164579    4.4637336 
10880000   0.96417112 -7.6020908e-05   0.38831991  0.028154576            0   0.36016533    1.4342045    1.8225244  -0.77232254 
10885000   0.95390582 2.1884184e-05   0.39725526  0.011270815            0   0.38598444    1.4189349    1.8161902    2.5631703 
10890000   0.90266161 4.4994821e-05   0.47345701  0.009510014            0     0.463947    1.3427091    1.8161662    3.3519894 
10895000   0.96222111 4.065602e-06   0.37929549 0.0053305867            0   0.37396491    1.4313039    1.8105994    1.9493719 
10900000   0.96720453 0.00013778067   0.34985807  0.017535719            0   0.33232235    1.4387167    1.7885748    6.4914883 
10905000   0.95607279 7.1444905e-05   0.36419949  0.029513055            0   0.33468644    1.4221583    1.7863578    4.2250105 
10910000   0.95122721 -0.00016332422   0.37120692  0.021342929            0   0.34986399    1.4149505    1.7861574   -3.7886426 
10915000   0.96723381 -5.8810154e-05   0.35145303  0.022223502            0   0.32922953    1.4387603    1.7902133  -0.21717325 
10920000   0.92267347 7.7283899e-05    0.4060239  0.011937028            0   0.39408688    1.3724768    1.7785007    4.4164578 
10925000   0.94140916 1.1577196e-05   0.37237635 0.0065843866            0   0.36579197    1.4003461    1.7727225    2.1678908 
10930000   0.92195526 3.9430254e-05   0.41137986  0.022339962            0   0.38903989    1.3714084    1.7827883    3.1286743 
10935000   0.97053393 -4.4072167e-06   0.33123175  0.018683913            0   0.31254784    1.4436692     1.774901     1.624468 
10940000   0.92203234 -1.2317167e-05   0.37201285  0.013998586            0   0.35801427    1.3715231     1.743536      1.32311 
10945000   0.93138971 -4.9568418e-05   0.36484751 0.0099866822            0   0.35486083    1.3854422    1.7502897  0.058354357 
10950000    0.8773585 2.7719669e-05   0.45108707 0.0097524029            0   0.44133467    1.3050708    1.7561578    2.7023225 
10955000   0.93105361 7.4467722e-05   0.39849048  0.031125757            0   0.36736472    1.3849422    1.7834327    4.3252643 
10960000   0.89824672 -1.9424272e-05   0.46145621  0.041708418            0   0.41974779     1.336142    1.7975982    1.1345831 
10965000   0.96829659 -7.5200913e-05   0.34569737  0.034208795            0   0.31148858    1.4403412    1.7860385  -0.78081928 
10970000   0.91056907 -0.00015421646   0.42590574 0.0074882813            0   0.41841746    1.3544715    1.7803772   -3.4835447 
10975000   0.96425494 -8.4968383e-05   0.35397178  0.012220286            0   0.34175149    1.4343292     1.788301   -1.1119531 
10980000   0.91285499 1.9707433e-05    0.4536639    0.0728809            0     0.380783    1.3578718    1.8115357    2.4842161 
10985000   0.94224747 0.00011439513    0.4126989   0.04660732            0   0.36609158    1.4015931     1.814292     5.718979 
10990000   0.89994538 0.0001522203   0.45107679  0.029502723            0   0.42157407    1.3386688    1.7897455    6.9855319 
10995000   0.88283431 7.5047173e-05   0.47730287  0.045903822            0   0.43139905     1.313216    1.7905189    4.3521291 
11000000   0.85810577 -2.1320329e-05   0.49721228   0.03286466            0   0.46434762    1.2764323    1.7736446    1.0459107 
11005000   0.86939788 -0.00011405371   0.47947897  0.035232597            0   0.44424638    1.2932293    1.7727083    -2.120325 
11010000   0.92215241 3.6644626e-05   0.41445782  0.016506259            0   0.39795156    1.3717017    1.7861595    3.0369628 
11015000   0.90084273 2.7847437e-05   0.43649619 0.0046651364            0   0.43183106    1.3400036    1.7764998    2.7270256 
11020000   0.93359817 6.4932409e-05   0.39139544 0.0041688374            0   0.38722661    1.3887273    1.7801227    3.9964823 
11025000   0.87040305 3.3879444e-05   0.47046603  0.033097865            0   0.43736816    1.2947245    1.7651906    2.9216089 
11030000   0.88271838 2.741657e-06   0.44380237  0.018436331            0   0.42536604    1.3130436     1.756846    1.8504279 
11035000    0.9218115 -0.00012111642   0.40420498 0.0099327051            0   0.39427228    1.3711946    1.7753996   -2.3587077 
11040000   0.92122447 -2.7951959e-05     0.392645 0.0083807416            0   0.38426426    1.3703214    1.7629664   0.80887284 
11045000   0.94387243 9.4343588e-05   0.37782598 0.0090650561            0   0.36876093    1.4040102    1.7818362    5.0020974 
11050000   0.87886947 -5.5585311e-05   0.46667994  0.017884664            0   0.44879528    1.3073183    1.7739983  -0.12331366 
11055000   0.84362998 -7.100716e-05   0.49207189    0.0600967            0   0.43197519    1.2548996    1.7469715  -0.67673958 
11060000   0.92526864 0.0001102191   0.37625727   0.01994673            0   0.35631054    1.3763371    1.7525944    5.5147396 
11065000   0.91176861 0.00019212892   0.38948421  0.020070508            0    0.3694137    1.3562558      1.74574    8.3037404 
11070000   0.86454214 0.00012747979   0.46424961  0.036795863            0   0.42745374    1.2860064     1.750256    6.1015662 
11075000   0.88583919 -9.7329457e-05   0.39978703   0.03223662            0   0.36755041    1.3176858    1.7174728    -1.604706 
11080000   0.90543085 4.5966937e-05   0.37973491 0.0097201224            0   0.37001478    1.3468284    1.7265633    3.2955681 
11085000   0.92160251 7.8171541e-05    0.3495856 0.0070457444            0   0.34253986    1.3708837    1.7204693    4.3887246 
11090000   0.83872181 -5.8100196e-05   0.45297094  0.032047868            0   0.42092307    1.2475987    1.7005696  -0.28258371 
11095000    0.8712515 -2.7349796e-05   0.39112902  0.032860659            0   0.35826836    1.2959866    1.6871156   0.75357591 
11100000   0.87452607 -5.3827679e-05   0.41378777   0.03623915            0   0.37754862    1.3008575    1.7146453  -0.12267282 
11105000    0.8981291 5.7889301e-05     0.385088 0.0047138321            0   0.38037417     1.335967     1.721055    3.6970098 
11110000   0.91221864 3.984952e-05   0.36016251  0.012326979            0   0.34783553    1.3569252    1.7170877    3.0772847 
11115000   0.82613558 0.00011669943   0.49188391  0.015313374            0   0.47657053    1.2288767    1.7207606    5.7041013 
11120000   0.86719971 -2.3481153e-05   0.41878515   0.00913132            0   0.40965383    1.2899596    1.7087447   0.90725471 
11125000    0.9367233 -2.0518739e-05   0.30309714 0.0021504526            0   0.30094668    1.3933759    1.6964731   0.99610008 
11130000   0.84766468 -3.8703931e-05   0.44615939 0.00080094108            0   0.44535845    1.2609012    1.7070606   0.38596643 
11135000   0.82917796 6.4197834e-05   0.44850177  0.016784603            0   0.43171717    1.2334022     1.681904      3.87319 
11140000   0.83929279 4.3909702e-05   0.41484429  0.033400149            0   0.38144414     1.248448    1.6632923    3.1620768 
11145000   0.84555924 -7.5349416e-05   0.42618105  0.055804207            0   0.37037684    1.2577694    1.6839504  -0.88797632 
11150000   0.86840293 -0.00012830917   0.42276165  0.049141188            0   0.37362046    1.2917494     1.714511   -2.6651086 
11155000   0.88801121 -2.9963901e-05   0.41794853  0.013593908            0   0.40435462    1.3209167    1.7388652   0.71609739 
11160000   0.89492029 3.3618787e-05   0.42321758 0.0097508437            0   0.41346674    1.3311939    1.7544115    2.9019328 
11165000   0.91578226 6.9550668e-05    0.4189671  0.012280019            0   0.40668708    1.3622261    1.7811932    4.1551894 
11170000   0.91272687 0.00013438502   0.43680096  0.011796638            0   0.42500432    1.3576812    1.7944822    6.3814908 
11175000   0.86399982 6.5051229e-05   0.53137511  0.029179125            0   0.50219599    1.2851997    1.8165748    4.0369901 
11180000    0.8528301 8.1603609e-05   0.55541231  0.039994484            0   0.51541782    1.2685848    1.8239971    4.6094003 
11185000   0.90980016 -3.1049031e-05   0.48979496 0.0096404381            0   0.48015452    1.3533277    1.8431227   0.78331578 
11190000   0.92643918 4.2791993e-05   0.45268282 0.0080367386            0   0.44464608    1.3780783    1.8307611    3.2913945 
11195000   0.90068626 7.2174321e-05   0.48729859  0.032545789            0    0.4547528    1.3397708    1.8270694    4.2906196 
11200000   0.84217658 -9.8270636e-05   0.59275677  0.053166931            0   0.53958984    1.2527377    1.8454944   -1.5088099 
11205000   0.91231912 4.5435187e-05   0.49664082  0.021305649            0   0.47533517    1.3570747    1.8537155    3.4045699 
11210000   0.94941372 0.00013313028   0.44608546 0.0097903765            0   0.43629508    1.4122529    1.8583384    6.4025187 
11215000   0.93534551 -3.7359108e-05   0.46248788  0.030002598            0   0.43248529    1.3913265    1.8538143   0.57862347 
11220000   0.91145063 -2.711183e-05   0.46631885  0.020478425            0   0.44584042    1.3557828    1.8221017   0.89668455 
11225000   0.93761803 2.1896458e-05   0.43602376 0.0090378422            0   0.42698592    1.3947068    1.8307306    2.5781297 
11230000   0.95194779 -7.0018185e-05    0.4189096  0.027662478            0   0.39124712    1.4160223    1.8349319  -0.55502211 
11235000   0.88118687 -3.3037559e-05   0.53733429  0.048312484            0   0.48902181    1.3107655    1.8480998   0.72041776 
11240000   0.91864359 -3.3592856e-05   0.49545753  0.046292242            0   0.44916529    1.3664823    1.8619399   0.71530371 
11245000   0.86971298 -0.00011103932   0.59427565  0.052870822            0   0.54140483    1.2936981    1.8879737   -1.9021683 
11250000   0.93690126 -8.3822373e-05    0.5047395  0.020585939            0   0.48415356    1.3936406    1.8983801  -0.96275687 
11255000   0.96941084 -7.7357033e-05   0.44090741  0.019316656            0   0.42159075    1.4419986     1.882906  -0.75754735 
11260000   0.90490308 -8.0729943e-05   0.52512878  0.019117215            0   0.50601156    1.3460433    1.8711721  -0.88440995 
11265000   0.89949074 -2.2092806e-05   0.53829956  0.014468688            0   0.52383087    1.3379925     1.876292    1.1221909 
11270000   0.93875246 -6.6079198e-06   0.46363022  0.019157458            0   0.44447276    1.3963943    1.8600245    1.6344742 
11275000   0.91319655 -2.1051787e-05   0.47931688  0.049093375            0    0.4302235    1.3583799    1.8376968    1.1191291 
11280000   0.91358554 -0.00010071395   0.48456255  0.029836525            0   0.45472602    1.3589585     1.843521   -1.5941819 
11285000   0.90039563 -6.5653829e-05   0.49874314  0.023762097            0   0.47498104    1.3393385    1.8380816  -0.40290238 
11290000   0.87850611 -9.6139359e-05   0.53428503  0.056601967            0   0.47768306    1.3067778    1.8410629   -1.4404939 
11295000   0.90901298 -0.00014042417   0.49239117  0.051557867            0    0.4408333    1.3521568     1.844548    -2.948597 
11300000    0.9168466 1.3744699e-05   0.48904774  0.028243563            0   0.46080418    1.3638093    1.8528571    2.3220094 
11305000   0.98061166 7.3893291e-05   0.38980514 0.0087960144            0   0.38100913    1.4586598     1.848465    4.3706893 
11310000   0.92760485 1.7290898e-05   0.46557768 0.0077868202            0   0.45779086    1.3798122    1.8453899    2.4355859 
11315000   0.96498637 -1.4421837e-06   0.40930944  0.014851044            0   0.39445839    1.4354172    1.8447267    1.7955001 
11320000   0.87584128 4.3439932e-06   0.51753906  0.029204919            0   0.48833414    1.3028139     1.820353    1.9686279 
11325000   0.89015666 -9.8010984e-05   0.49759198   0.01840322            0   0.47918876     1.324108       1.8217   -1.5237416 
11330000   0.88451172 -6.9410471e-05   0.49922057 0.0045844225            0   0.49463615    1.3157112    1.8149318    -0.554279 
11335000   0.91156645 4.495558e-05   0.46030252  0.012798413            0   0.44750411    1.3559551    1.8162576    3.3507414 
11340000   0.92257775 -9.2439169e-05   0.43449024  0.010634139            0    0.4238561    1.3723344    1.8068246   -1.3484323 
11345000   0.86768286 -9.7095664e-05   0.50328246 0.0010134297            0   0.50226903    1.2906783    1.7939607    -1.520238 
11350000   0.90496049 3.5356006e-05    0.4449607 0.0026239343            0   0.44233677    1.3461287    1.7910894    2.9979078 
11355000   0.91797499 0.00016913132    0.4223551  0.017366217            0   0.40498888    1.3654878    1.7878429    7.5608587 
11360000   0.88750104 0.00015883104   0.47856037  0.017083565            0   0.46147681    1.3201578    1.7987182    7.2201512 
11365000   0.91704625 8.4771894e-05   0.44175511  0.034270337            0   0.40748477    1.3641063    1.8058614    4.6994087 
11370000    0.8847092 -4.014851e-06   0.49133639  0.021888995            0   0.46944739    1.3160049    1.8073413    1.6703011 
11375000   0.92936858 -4.4175872e-05   0.42171712   0.02020117            0   0.40151595    1.3824358    1.8041529   0.29628312 
11380000    0.9526392 -0.00014845179   0.41526891  0.015882131            0   0.39938678    1.4170508    1.8323197   -3.2348346 
11385000   0.90997713 -0.00014699024    0.5025089   0.01535172            0   0.48715718     1.353591    1.8560999   -3.1611669 
11390000   0.83453229 -0.00014222857   0.61980494  0.015981734            0   0.60382321    1.2413668    1.8611717   -2.9935634 
11395000   0.92465304 1.7180121e-05   0.48409621  0.014138666            0   0.46995754    1.3754214    1.8595176    2.4459324 
11400000   0.97951816 -3.871865e-07   0.40641406 0.0078519777            0   0.39856208    1.4570333    1.8634473    1.8502314 
11405000   0.97679279 -9.3558896e-07   0.40883552 0.00094795548            0   0.40788756    1.4529793    1.8618148      1.82988 
11410000   0.88454452 -1.3723068e-05   0.54086729 0.00054782115            0   0.54031947      1.31576    1.8566273    1.3882132 
11415000   0.94195321 6.2216111e-06   0.47028528  0.001630064            0   0.46865521    1.4011554    1.8714407     2.083805 
11420000   0.94892073 4.1402129e-05    0.4575963   0.02247992            0   0.43511638    1.4115196    1.8691159    3.2823086 
11425000   0.92982341 1.7588829e-05   0.48372715  0.023577681            0   0.46014947    1.3831123    1.8668395    2.4672048 
11430000   0.89750657 0.00011435891   0.51505737  0.019067169            0    0.4959902     1.335041    1.8500984    5.7535493 
11435000   0.90463996 -1.5575344e-06   0.49523088 0.0075271422            0   0.48770374    1.3456519    1.8408828     1.787719 
11440000   0.94813234 -8.4514459e-05   0.41935734  0.007822427            0   0.41153491    1.4103469    1.8297042    -1.055056 
11445000   0.93871204 6.540828e-05   0.44272321   0.01533156            0   0.42739165    1.3963342    1.8390574      4.07166 
11450000   0.88601934 7.1750248e-05   0.52478327  0.012341808            0   0.51244146    1.3179538     1.842737    4.2918122 
11455000   0.93005959 -6.4398069e-06   0.45273289  0.013094949            0   0.43963794    1.3834636    1.8361965    1.6163845 
11460000   0.92611884 -4.6121717e-05   0.47879691  0.010202879            0   0.46859403    1.3776018    1.8563987   0.28211075 
11465000    0.9110402 5.2549423e-05   0.48311523 0.0025774034            0   0.48053783    1.3551723    1.8382875    3.6319745 
11470000   0.92486926 8.3585942e-05   0.45071211 0.0015230298            0   0.44918908     1.375743    1.8264551     4.679522 
11475000   0.90795982 8.2585241e-05   0.45194065 0.0067156007            0   0.44522504    1.3505902    1.8025309    4.6214404 
11480000   0.89078188 2.2832263e-05   0.47872946   0.01347132            0   0.46525814     1.325038    1.8037675    2.5831087 
11485000   0.90182307 -2.6489953e-05   0.47235129  0.019688323            0   0.45266296    1.3414618    1.8138131   0.90962271 
11490000   0.91284578 -5.764461e-05   0.48568055  0.057542524            0   0.42813803    1.3578581    1.8435387  -0.12406405 
11495000   0.86147566 -5.9395829e-05   0.56172034   0.04055586            0   0.52116448     1.281445    1.8431654  -0.18421225 
11500000   0.93815879 4.6460047e-05   0.47552056   0.01209165            0   0.46342891    1.3955112    1.8710318     3.456868 
11505000   0.90976572 -3.4086035e-05   0.52927737  0.012529673            0    0.5167477    1.3532765    1.8825539   0.71908388 
11510000    0.9512053 -1.3447801e-05   0.44319442 0.0096697808            0   0.43352464    1.4149179    1.8581123     1.399094 
11515000   0.90600707 -2.9784532e-05   0.51023499  0.011900837            0   0.49833415    1.3476855    1.8579205   0.84127513 
11520000   0.90790022 -7.1211171e-05   0.51943625  0.039579958            0   0.47985629    1.3505016    1.8699378  -0.56073683 
11525000   0.95981293 5.6704738e-05   0.43507876  0.029963007            0   0.40511575    1.4277217    1.8628005    3.7983222 
11530000   0.93235125 0.00010923107   0.49584592  0.013074604            0   0.48277131    1.3868725    1.8827184    5.6111391 
11535000   0.92585694 3.6097718e-05   0.50211031  0.032075241            0   0.47003507    1.3772122    1.8793225    3.1114579 
11540000   0.90401309 0.00013352364   0.52331117  0.019533805            0   0.50377737    1.3447195    1.8680306    6.4256377 
11545000    0.9089836 0.00019021659   0.52397778  0.021242348            0   0.50273543    1.3521131    1.8760909    8.3688172 
11550000   0.93020825 -2.1120024e-06   0.50725387  0.025706221            0   0.48154765    1.3836848    1.8909386     1.818849 
11555000   0.95924138 -7.0662468e-05   0.46666924  0.017390434            0    0.4492788    1.4268716    1.8935408  -0.51840478 
11560000   0.99801621 8.8739691e-06   0.42311359 0.0043475973            0   0.41876599    1.4845491    1.9076627    2.2105608 
11565000   0.94644688 3.7226666e-06   0.51338473 0.0048637326            0     0.508521    1.4078397    1.9212245    2.0482915 
11570000   0.92937641 -5.062528e-05   0.52514442 0.0061020076            0   0.51904242    1.3824474    1.9075918   0.17958228 
11575000   0.92639108 -0.00015646128   0.52769581 0.0042516549            0   0.52344416    1.3780067    1.9057025   -3.4348425 
11580000    1.0191636 -0.00013326616   0.40932072 0.0069985507            0   0.40232217    1.5160058    1.9253265   -2.6234919 
11585000   0.89558232 -3.2591259e-05   0.57042042  0.051873148            0   0.51854727    1.3321787    1.9025991   0.79015081 
11590000   0.94632225  0.000142457   0.49585266  0.023778039            0   0.47207462    1.4076543     1.903507    6.7660394 
11595000   0.88213198 0.00016631868   0.60890021  0.038982437            0   0.56991777    1.3121713    1.9210715    7.5980826 
11600000   0.95689883 -8.789712e-05   0.50490778  0.034383581            0    0.4705242     1.423387    1.9282948   -1.0719269 
11605000   0.92856691 -9.7716453e-05   0.55331959  0.027864256            0   0.52545534    1.3812433    1.9345629   -1.4008254 
11610000   0.96872231 5.264164e-05   0.51392714  0.028493344            0   0.48543379    1.4409744    1.9549016    3.7517362 
11615000   0.92202535 0.00014267213   0.56492286  0.047281281            0   0.51764158    1.3715127    1.9364356    6.8063108 
11620000   0.95068904 0.00021940378   0.52139998  0.031007457            0   0.49039252    1.4141499    1.9355499    9.4245322 
11625000    0.9668627 6.3221163e-05   0.51165673  0.015261301            0   0.49639543    1.4382083     1.949865     4.107814 
11630000    0.9374969 -0.00011898698   0.57007137  0.018148048            0   0.55192332    1.3945266     1.964598   -2.0968241 
11635000   0.95232194 -5.6440784e-05   0.54031531  0.026115845            0   0.51419947    1.4165789    1.9568942  0.030382095 
11640000    0.9705809 -3.0343035e-05   0.50081314   0.02860132            0   0.47221182    1.4437391    1.9445522   0.90884332 
11645000    0.9672933 6.5809091e-05   0.52926547  0.018451514            0   0.51081396    1.4388488    1.9681143    4.2143979 
11650000   0.95205011 0.00013851799   0.56965106  0.059753075            0   0.50989799    1.4161745    1.9858256    6.7139064 
11655000   0.97484694 -2.3351249e-05   0.52591192  0.024272773            0   0.50163915    1.4500848    1.9759967    1.1789408 
11660000   0.95716189 -3.1633964e-05   0.53978323  0.011180391            0   0.52860283    1.4237783    1.9635615   0.88378889 
11665000   0.94795542 6.4021995e-05   0.54721677  0.027657055            0   0.51955971    1.4100837    1.9573005    4.1425846 
11670000   0.94292115 -2.496088e-05   0.52465187   0.02012488            0   0.50452699    1.4025952    1.9272471    1.0752491 
11675000   0.92926391 9.0778733e-06   0.54693002  0.015783729            0   0.53114629    1.3822801    1.9292101    2.2390682 
11680000   0.94301263 8.0674358e-05   0.52819673 0.0070573773            0   0.52113936    1.4027313     1.930928    4.6846128 
11685000   0.90685881 -2.5181369e-05    0.5836642   0.01511466            0   0.56854954    1.3489525    1.9326167    1.0730926 
11690000    1.0036741 -2.6780695e-05   0.45542026  0.011617529            0   0.44380273    1.4929652    1.9483855    1.0342711 
11695000    1.0555475 -1.8616836e-05   0.36499234 0.0029473138            0   0.36204503    1.5701269    1.9351192    1.2996645 
11700000   0.96696741 -0.00010484128   0.48979483  0.005418191            0   0.48437664     1.438364    1.9281589   -1.6504234 
11705000   0.98324873 -7.1784483e-05   0.45373787  0.013728727            0   0.44000914    1.4625825    1.9163203  -0.53392334 
11710000   0.89443509 8.514877e-05   0.59195117  0.020257952            0   0.57169322    1.3304722    1.9224234    4.8288347 
11715000   0.94252118 4.2624637e-05   0.51713991  0.030541639            0   0.48659827    1.4020003    1.9191402    3.3740611 
11720000   0.95458077 -5.6713667e-05   0.49084545   0.02362947            0   0.46721598    1.4199389    1.9107843 -0.025042162 
11725000   0.88784665 -0.00010035276   0.58893484  0.015139747            0    0.5737951    1.3206719    1.9096067   -1.5157676 
11730000   0.97427475 -8.4403942e-05   0.45749521 0.0049740003            0   0.45252121    1.4492337    1.9067289  -0.97425898 
11735000   0.90990763 4.8607199e-05   0.56696395   0.02331807            0   0.54364588    1.3534876    1.9204516    3.5795773 
11740000   0.93959775 9.7219701e-06   0.53027374  0.020405723            0   0.50986802    1.3976517    1.9279254    2.2597686 
11745000    1.0164622 1.1833875e-05   0.41157254  0.019288037            0   0.39228451    1.5119876    1.9235601    2.3274897 
11750000   0.92600947 -1.9395794e-05   0.54107953  0.031808699            0   0.50927084    1.3774391    1.9185186    1.2564755 
11755000   0.95775228  1.28018e-05   0.49877524  0.018759968            0   0.48001527    1.4246565    1.9234318    2.3603999 
11760000   0.87677301 3.7588519e-05   0.62608848  0.018417921            0   0.60767056    1.3041998    1.9302883    3.2133098 
11765000   0.95480496 2.854637e-05   0.49231613  0.040716399            0   0.45159973    1.4202724    1.9125885    2.8869713 
11770000    1.0022542 6.0068207e-05   0.41299668 0.0044330499            0   0.40856363    1.4908531    1.9038498    3.9541779 
11775000   0.93278167 1.9066955e-05   0.48580067 0.0077484492            0   0.47805222    1.3875127    1.8733134    2.5241322 
11780000   0.94938329 3.8540942e-05   0.46689984  0.015234387            0   0.45166545    1.4122076    1.8791075    3.1946383 
11785000   0.90686056 -7.7030778e-06   0.51784181  0.026522612            0   0.49131919    1.3489551    1.8667969    1.6038652 
11790000   0.89255015 -2.8977169e-05   0.54082414  0.025077068            0   0.51574707    1.3276684    1.8684925   0.87940511 
11795000   0.89256007 2.5836149e-05   0.55553121  0.019156596            0   0.53637461    1.3276831    1.8832143    2.7650882 
11800000   0.90122259 4.069675e-05   0.55152315   0.01049519            0   0.54102796    1.3405686    1.8920918    3.2812075 
11805000   0.94202328 0.00012912721   0.48390003   0.02596087            0   0.45793916    1.4012596    1.8851597    6.2927019 
11810000   0.94844643 0.00013344656    0.4979263  0.029303932            0   0.46862236    1.4108141    1.9087404    6.4637161 
11815000   0.88822181 -9.4613424e-06   0.55865352  0.027813526            0      0.53084    1.3212299    1.8798835    1.5569363 
11820000   0.91370989 -5.9801171e-05   0.52277542  0.012737807            0   0.51003762    1.3591435    1.8819189  -0.15929443 
11825000   0.96566892 -1.960652e-06   0.46264607  0.015437481            0   0.44720859    1.4364325    1.8990786     1.832155 
11830000   0.93029675 2.9450701e-05   0.52748178  0.016643879            0    0.5108379    1.3838164    1.9112982    2.9165488 
11835000   0.91945446 0.00016484183   0.56615757  0.010677917            0   0.55547965    1.3676885    1.9338461    7.5604473 
11840000   0.92471419 0.00015439903   0.53539068 0.0033673192            0   0.53202336    1.3755124     1.910903    7.1810566 
11845000    0.8769062 2.6731679e-05    0.6055147  0.014322243            0   0.59119246     1.304398    1.9099127     2.822354 
11850000   0.86281908 -8.089173e-05   0.61454878  0.023161391            0   0.59138739    1.2834434    1.8979922  -0.86311223 
11855000   0.90938034 -5.3469179e-05   0.53784637 0.0069148184            0   0.53093155    1.3527033    1.8905496  0.065468307 
11860000   0.98237899 7.5288168e-05   0.41165903 0.0028600415            0   0.40879899    1.4612887    1.8729478    4.4427839 
11865000     0.875415 3.3577873e-05   0.56458487  0.027355079            0   0.53722979    1.3021798    1.8667647    3.0128894 
11870000   0.84804108 -5.8309903e-05   0.59843581  0.015769966            0   0.58266585    1.2614611    1.8598969  -0.13041444 
11875000   0.93078569 -2.5460752e-05   0.48285713 0.0037810039            0   0.47907613    1.3845437    1.8674009   0.99834053 
11880000   0.89028805 -0.00013263592   0.52851387 0.0034453349            0   0.52506854    1.3243035    1.8528174   -2.6744887 
11885000   0.84430243 -6.0436776e-05   0.61403267  0.013269428            0   0.60076324    1.2558999    1.8699325   -0.1929761 
11890000   0.93677184 2.1298516e-05   0.50560923  0.010545547            0   0.49506368    1.3934481    1.8990573    2.6260467 
11895000   0.99233596 -1.3305059e-05   0.43228571 0.0037825715            0   0.42850314    1.4760997    1.9083855    1.4542394 
11900000    0.9253616 -8.6331964e-05   0.52832694 0.0026058624            0   0.52572108    1.3764754    1.9048023   -1.0419954 
11905000   0.89946272 -0.0001517633   0.54741659  0.044038076            0   0.50337851    1.3379508    1.8853674     -3.29482 
11910000   0.86601112 -8.3218904e-06   0.59905209   0.04816564            0   0.55088645    1.2881915    1.8872436    1.6031898 
11915000   0.92648735 -3.1240263e-05   0.51661918  0.025065661            0   0.49155352    1.3781499    1.8947691    0.8284348 
11920000   0.90484439 4.5103496e-05   0.54537439  0.021555655            0   0.52381873     1.345956    1.8913304    3.4308631 
11925000   0.95692039 -9.0598533e-05   0.46810254  0.026489635            0    0.4416129    1.4234191    1.8915216   -1.2009083 
11930000   0.85908148 -2.711597e-05   0.61692084  0.016080355            0   0.60084049    1.2778837    1.8948045    0.9692461 
11935000   0.94723187 8.7003143e-06   0.49408267  0.017372128            0   0.47671054    1.4090074    1.9030901    2.2000608 
11940000   0.89257566 3.8259675e-05    0.5595756 0.0083590917            0   0.55121651    1.3277063    1.8872819    3.1932121 
11945000    0.9278444 0.0001062183   0.48898816 0.0082111839            0   0.48077698    1.3801685    1.8691567    5.4947414 
11950000   0.89405972 -6.7689575e-05   0.53945392  0.012728433            0   0.52672549    1.3299138    1.8693678  -0.44110308 
11955000   0.95022968 -0.00013184791   0.45317625 0.0084061918            0   0.44477005    1.4134666    1.8666429   -2.6337657 
11960000   0.87110267 -8.1835667e-05   0.56107483  0.018320464            0   0.54275436    1.2957652      1.85684  -0.93648405 
11965000   0.91659628 -4.4045873e-05   0.50538958  0.018292992            0   0.48709659     1.363437    1.8688265   0.36539406 
11970000   0.92851728 -8.7834115e-05   0.48436178  0.019252896            0   0.46510889    1.3811695    1.8655312   -1.1325399 
11975000   0.92615531 -2.6901235e-05   0.46884896  0.038145445            0   0.43070351     1.377656     1.846505   0.92827617 
11980000   0.82571365 0.00014223965   0.62474916  0.022484919            0   0.60226424    1.2282491    1.8529982    6.7081116 
11985000   0.88735242 6.8319248e-05   0.51900037  0.007311327            0   0.51168904    1.3199367    1.8389371    4.1709008 
11990000   0.86925587  2.99917e-05    0.5337593  0.010965402            0    0.5227939    1.2930181    1.8267774    2.8504941 
11995000    0.9040993 -0.00017480389   0.50745954  0.016149448            0   0.49131009    1.3448477    1.8523072   -4.1143321 
12000000   0.87879696 -0.00014615573   0.54824661 0.0090959992            0   0.53915061    1.3072105    1.8554571   -3.1333251 
12005000   0.86607463 3.6054793e-05   0.55476923 0.0043073164            0   0.55046191     1.288286    1.8430552    3.0737255 
12010000   0.85397917 -0.00013615999   0.58173236   0.02876013            0   0.55297223     1.270294    1.8520264    -2.795568 
12015000   0.88380223 -0.0001556432   0.51995134  0.025202568            0   0.49474877    1.3146558    1.8346072   -3.4780141 
12020000   0.89710387 -5.5183123e-05   0.50849808  0.013592106            0   0.49490597     1.334442    1.8429401 -0.040643854 
12025000   0.90763932 -2.4511714e-05   0.52172958 0.0091973464            0   0.51253224    1.3501135    1.8718431    1.0351766 
12030000   0.81475594 -1.0709714e-05   0.63539636  0.013215784            0   0.62218058    1.2119495    1.8473458    1.4817876 
12035000   0.90015843 4.721673e-05   0.51308672  0.016441529            0    0.4966452    1.3389857    1.8520724    3.4637368 
12040000   0.90903976 0.00010144137   0.49279886  0.024098398            0   0.46870046    1.3521966    1.8449955    5.3075275 
12045000   0.83440087 8.5069556e-05   0.59595699  0.016708189            0    0.5792488    1.2411713    1.8371283    4.7408358 
12050000    0.8268054 6.0532481e-05   0.61575645  0.032390164            0   0.58336629     1.229873    1.8456295    3.9118048 
12055000   0.85752838   4.5518e-05   0.54498027  0.022712578            0    0.5222677    1.2755735    1.8205537    3.3742348 
12060000   0.84606379 1.8466775e-06   0.56231377 0.0098834802            0   0.55243029    1.2585199    1.8208337    1.8838669 
12065000   0.86366348 -2.3131081e-05   0.51656161 0.0049653459            0   0.51159627    1.2846994     1.801261    1.0117201 
12070000   0.79723096 -7.8552536e-07    0.6064335  0.017344434            0   0.58908907     1.185881    1.7923145    1.7655019 
12075000   0.82264827 -3.1947826e-06   0.54143266  0.019565166            0    0.5218675    1.2236893     1.765122    1.6560734 
12080000   0.80493596 4.218273e-05   0.55312285  0.038086052            0    0.5150368    1.1973422    1.7504651    3.1903023 
12085000   0.79353426 2.9105176e-05   0.56939364  0.018798079            0   0.55059556    1.1803822    1.7497759    2.7432325 
12090000   0.83565321 4.0356798e-05   0.48460714  0.053696388            0   0.43091076    1.2430341    1.7276413    3.1051533 
12095000   0.79009231 -6.6048915e-05   0.56930273  0.033839204            0   0.53546353    1.1752623     1.744565   -0.5099046 
12100000   0.89064248 -4.8845115e-05   0.42921595 0.0069366278            0   0.42227932    1.3248307    1.7540466  0.086800063 
12105000   0.85090549 0.00010040217   0.47723968  0.012286012            0   0.46495367    1.2657219    1.7429616    5.1700223 
12110000   0.82442063 8.7473944e-05   0.53750891  0.049161385            0   0.48834752    1.2263257    1.7638346    4.7496119 
12115000   0.76374993 -3.501033e-05   0.60935314  0.032774995            0   0.57657814     1.136078    1.7454312   0.55041188 
12120000   0.86287238 -8.4734667e-05   0.44113456  0.006283297            0   0.43485126    1.2835227    1.7246572   -1.1676194 
12125000   0.85703144 -0.00010062206   0.44504464 0.0021456652            0   0.44289897    1.2748343    1.7198789   -1.7146875 
12130000   0.83501156 -0.00016669891   0.48950601 0.0042666777            0   0.48523933    1.2420797    1.7315857   -3.9584039 
12135000   0.87655254 -6.4426742e-05   0.47752673 0.0047532172            0   0.47277351    1.3038719    1.7813986  -0.41770084 
12140000   0.84132469 0.00012138743   0.53286101 0.0058755137            0   0.52698549    1.2514705    1.7843315    5.9276891 
12145000   0.88595574 -6.4414114e-05   0.48001082  0.017337261            0   0.46267356    1.3178592      1.79787  -0.40079844 
12150000   0.90149252  -9.5383e-05   0.46632687  0.010097957            0   0.45622892    1.3409701     1.807297   -1.4484427 
12155000   0.90864231 -8.8921298e-06   0.45539406  0.011047888            0   0.44434617    1.3516054    1.8069995    1.5034815 
12160000   0.85680442 -3.9032498e-05    0.5618033  0.034608404            0    0.5271949    1.2744966    1.8362999   0.50399061 
12165000   0.89323462 -3.425079e-05   0.50954985  0.018216094            0   0.49133375    1.3286865    1.8382363    0.6691427 
12170000   0.90707299 -0.00012096059   0.51014795 0.0056807955            0   0.50446716    1.3492711     1.859419   -2.2693691 
12175000   0.92847137 -0.00010624938    0.4830664  0.014811323            0   0.46825507    1.3811012    1.8641676    -1.762478 
12180000   0.93902025 -2.7995248e-05   0.46603843  0.006653973            0   0.45938446    1.3967926    1.8628311   0.90725991 
12185000   0.90398006 -7.3241065e-05   0.52300387  0.015450183            0   0.50755369    1.3446703    1.8676742  -0.63228747 
12190000   0.91878886 0.00010113901   0.52163196  0.020112328            0   0.50151964    1.3666984    1.8883304    5.3405418 
12195000   0.93292433 8.1100221e-05   0.48384073 0.0086731245            0    0.4751676    1.3877249    1.8715657    4.6397865 
12200000   0.93164659 4.2956641e-05   0.49187582  0.011418714            0    0.4804571    1.3858243    1.8777001    3.3439535 
12205000   0.87653412 -2.0300491e-05   0.58502321  0.019760024            0   0.56526319    1.3038445    1.8888677    1.1959443 
12210000   0.97323115  2.73737e-06   0.42590485  0.024010857            0   0.40189399    1.4476813    1.8735862    1.9670218 
12215000   0.89633697 7.3709724e-05   0.56097567  0.049747855            0   0.51122781    1.3333012    1.8942769    4.4102355 
12220000   0.92788889 0.00012238513   0.53220192  0.027969887            0   0.50423204    1.3802347    1.9124366    6.0898492 
12225000   0.94047105 0.00012035955   0.48894469  0.022093281            0   0.46685141    1.3989507    1.8878954    5.9961679 
12230000   0.91199734 -5.6492976e-05   0.54152435  0.023530131            0   0.51799422     1.356596    1.8981204 -0.030173204 
12235000   0.95979771 -3.6474301e-06   0.47206717  0.019165521            0   0.45290165    1.4276991    1.8997663    1.7752673 
12240000   0.94910227 -4.548566e-05   0.51056326  0.015093948            0   0.49546931    1.4117896    1.9223529   0.36977568 
12245000   0.97065058 0.00011545025   0.51468446 0.0090904323            0   0.50559402    1.4438427    1.9585272    5.8992291 
12250000   0.93161638 4.2301418e-05   0.57066013 0.0071697107            0   0.56349041    1.3857794    1.9564395    3.4003279 
12255000   0.97077465 0.00012670728   0.50613365 0.0043375379            0   0.50179611    1.4440273    1.9501609    6.2751028 
12260000   0.94899129 0.00027988538   0.55814723  0.012416971            0   0.54573026    1.4116245    1.9697718    11.523193 
12265000    1.0271947 0.00013681729   0.42851906  0.029784526            0   0.39873453    1.5279521    1.9564712    6.6265015 
12270000   0.96048352 2.4775488e-05   0.52082251  0.015280753            0   0.50554176    1.4287192    1.9495418    2.7952117 
12275000    0.9676341 -0.0001045786   0.50757284  0.030179919            0   0.47739292    1.4393557    1.9469286   -1.6226877 
12280000   0.98702069 -7.7823054e-05   0.46356429   0.03376029            0     0.429804    1.4681933    1.9317576  -0.72460268 
12285000   0.93446549 -1.6384992e-05   0.52017763  0.065654801            0   0.45452283    1.3900174    1.9101951    1.3509207 
12290000    1.0184207 3.2094211e-07   0.41360288  0.020752731            0   0.39285015    1.5149007    1.9285036    1.9394584 
12295000   0.95316724 -9.4085037e-06   0.50776298 0.0053304233            0   0.50243256    1.4178363    1.9255992    1.6044557 
12300000    0.9843194 -0.00016579256   0.46234619  0.018470747            0   0.44387544    1.4641751    1.9265213   -3.7325314 
12305000   0.95051368 -0.0001784704   0.50726832     0.037278            0   0.46999032    1.4138891    1.9211574   -4.1706322 
12310000   0.91699146 -2.4289068e-05   0.57889175  0.022864384            0   0.55602736    1.3640248    1.9429165    1.1138497 
12315000    1.0030647 3.9023551e-05   0.45741119  0.008681946            0   0.44872924    1.4920587    1.9494699    3.2814738 
12320000   0.98571319 -7.2221534e-05   0.48822717  0.014071203            0   0.47415596    1.4662484    1.9544755  -0.51068617 
12325000   0.95690261 6.2632645e-06   0.52951985  0.016096799            0   0.51342305    1.4233926    1.9529125    2.1666986 
12330000    1.0436497 4.7734184e-05   0.39979649  0.010950814            0   0.38884568    1.5524289    1.9522254    3.5815523 
12335000   0.97149909 6.5208197e-05   0.51273152 0.0068933015            0   0.50583822    1.4451049    1.9578364    4.1836095 
12340000   0.97903065 7.5950769e-05   0.50006012  0.020963859            0   0.47909626    1.4563081    1.9563682    4.5488211 
12345000   0.94475107 -1.3228285e-05   0.55472267  0.047064355            0   0.50765831    1.4053172    1.9600399    1.5085144 
12350000    1.0029637 -3.1029362e-05   0.50183223  0.022417177            0   0.47941505    1.4919085    1.9937407   0.93460518 
12355000   0.98687431 -7.8454988e-06   0.53106693  0.035177781            0   0.49588915    1.4679755    1.9990425    1.7312494 
12360000    1.0022174 0.00011784678   0.54406909  0.052360081            0   0.49170901    1.4907983    2.0348674    6.0573708 
12365000    1.0000674 0.00012904788   0.52869357  0.024590134            0   0.50410343    1.4876003    2.0162938    6.4211282 
12370000   0.98035764 1.4710644e-05   0.53561103  0.010934363            0   0.52467667     1.458282     1.993893    2.4960163 
12375000    0.9814918 -7.3568162e-05   0.53113772  0.032435908            0   0.49870181     1.459969    1.9911068  -0.52001985 
12380000   0.95190076 -0.00014235621   0.57036904   0.02533587            0   0.54503317    1.4159524    1.9863214   -2.8727705 
12385000   0.99724638 -0.00015754345   0.48701435 0.0088584201            0   0.47815593     1.483404    1.9704183   -3.4070647 
12390000   0.96350218 -8.6838764e-05   0.51736774  0.015656948            0   0.50171079    1.4332095    1.9505772   -1.0135192 
12395000   0.89841769 -7.792118e-05   0.59553706  0.036577154            0   0.55895991    1.3363963    1.9319334  -0.72777623 
12400000    0.9169956 4.9400494e-05   0.55379994  0.063925999            0   0.48987394     1.364031    1.9178309    3.6040344 
12405000    1.0007147 0.00013871327   0.44001597   0.03176802            0   0.40824795    1.4885631    1.9285791    6.6633253 
12410000    1.0265077 4.9869646e-05   0.43216264  0.024309812            0   0.40785283    1.5269302    1.9590928      3.66131 
12415000   0.98436125 0.0002136997   0.49268355  0.018659687            0   0.47402386    1.4642374    1.9569209    9.2512039 
12420000   0.94262022 2.5281402e-05   0.53265201  0.023187703            0   0.50946431    1.4021476    1.9347996    2.7977381 
12425000   0.90327557 1.5966067e-06   0.60865382  0.026942917            0    0.5817109    1.3436224    1.9522762    2.0067737 
12430000   0.96253758 -4.2427172e-05   0.54677695  0.021737998            0   0.52503895    1.4317747    1.9785516   0.53037079 
12435000   0.98632569 -8.5661521e-05   0.50846958  0.036184802            0   0.47228478    1.4671595     1.975629   -0.9482842 
12440000   0.93591088 9.3859958e-05   0.57305275  0.018485984            0   0.55456677    1.3921674    1.9652202    5.1689734 
12445000   0.97476629 0.00020020853   0.49402899  0.041471638            0   0.45255735    1.4499649    1.9439939    8.7777784 
12450000   0.95352472 3.9562443e-05   0.53630624  0.015780887            0   0.52052535     1.418368    1.9546743    3.3050723 
12455000   0.97111297 -1.0539225e-05   0.50491647  0.019231625            0   0.48568485    1.4445305     1.949447    1.5897081 
12460000    1.0155762 1.9948444e-05   0.45628202  0.020465813            0    0.4358162    1.5106696    1.9669516    2.6478585 
12465000    1.0174597 0.00019858781   0.46519384  0.019644951            0   0.44554889    1.5134713    1.9786652     8.757129 
12470000   0.99325065 0.00013101313   0.50210892  0.023801126            0    0.4783078    1.4774603    1.9795693     6.451484 
12475000   0.96425208 1.5231798e-05   0.53072467  0.023222622            0   0.50750205     1.434325    1.9650496    2.4849617 
12480000   0.99990401 -8.0544881e-05   0.50420038  0.012816404            0   0.49138398    1.4873572    1.9915576  -0.75770766 
12485000   0.98596072 9.6535362e-05   0.54788062  0.016025523            0   0.53185509    1.4666166    2.0144972    5.3095709 
12490000     1.038627 4.7634915e-06   0.46220993 0.0082815368            0    0.4539284    1.5449576    2.0071676    2.1697614 
12495000   0.98448712 8.9843739e-06   0.53539523   0.02716899            0   0.50822624    1.4644246    1.9998198    2.3064865 
12500000   0.99371026 0.00016482727   0.49220635  0.060562263            0   0.43164409     1.478144    1.9703504    7.5964547 
12505000   0.97078627 -6.8111205e-05   0.51298143  0.041805724            0   0.47117571    1.4440446     1.957026  -0.36783646 
12510000    1.0100727 -0.0001294836   0.47600754  0.016958562            0   0.45904898    1.5024832    1.9784907   -2.4412162 
12515000   0.98286336 1.5235485e-05    0.5096262  0.021440234            0   0.48818597    1.4620092    1.9716354    2.4916733 
12520000   0.92679581 -0.00012558147   0.61769097  0.042508802            0   0.57518217    1.3786088    1.9962997   -2.2902146 
12525000   0.99783824 -5.5654061e-05   0.50138098  0.037598517            0   0.46378246    1.4842844    1.9856654   0.08600676 
12530000   0.97297803 6.9968471e-05   0.52903286 0.0051404558            0    0.5238924    1.4473048    1.9763377    4.3645948 
12535000   0.92928428 0.00016788382   0.60091307  0.021981296            0   0.57893178    1.3823104    1.9832234    7.7136578 
12540000    1.0308919 0.00011778954   0.46821154  0.026896963            0   0.44131458    1.5334517    2.0016632    6.0222129 
12545000   0.96124289 5.5847633e-05   0.55276122  0.032814455            0   0.51994676    1.4298488      1.98261    3.8888759 
12550000   0.93931612 -8.1592971e-05   0.61421936  0.038454661            0    0.5757647    1.3972327    2.0114521  -0.77358798 
12555000    1.0332457 2.4911695e-05   0.47981351  0.047701453            0   0.43211206    1.5369529    2.0167664    2.8670856 
12560000    1.0172303 7.5736498e-05   0.49517728  0.010621148            0   0.48455614    1.5131301    2.0083073    4.5934465 
12565000   0.98271424 0.00012501964   0.56608762 0.0024228926            0   0.56366472    1.4617874    2.0278751    6.2952122 
12570000   0.95992954 -3.4587216e-06   0.61809189 0.0038971099            0   0.61419478    1.4278952    2.0459871    1.9279294 
12575000    1.0773376 -7.6248304e-06   0.44584398  0.028495242            0   0.41734874    1.6025396    2.0483836    1.7881227 
12580000    1.0444424 -1.0538168e-06   0.49664133  0.022270347            0   0.47437098    1.5536081    2.0502494    2.0142791 
12585000    1.0190822 -0.00011909397   0.52365516  0.026201044            0   0.49745411    1.5158847    2.0395399   -2.0255342 
12590000    1.0005887 -3.6514556e-05   0.55806408  0.025560947            0   0.53250314    1.4883756    2.0464397   0.80007622 
12595000    1.0726683 -4.9647452e-05   0.46748459  0.032954887            0    0.4345297    1.5955941    2.0630787   0.36844568 
12600000    1.0002758 -9.4897796e-05   0.59417192  0.025416318            0    0.5687556    1.4879103    2.0820822   -1.1570959 
12605000   0.99982649 -2.1016805e-05   0.60071002  0.071248323            0   0.52946169    1.4872419    2.0879519    1.3705783 
12610000    1.0716414 -1.061986e-05   0.48388111  0.039657808            0    0.4442233    1.5940666    2.0779477    1.7154565 
12615000    1.0082206 -8.0412594e-06   0.57016761  0.015326424            0   0.55484119    1.4997281    2.0698957    1.7954207 
12620000     1.017572 7.6769476e-05   0.53100806  0.010188757            0   0.52081931    1.5136383    2.0446464    4.6650445 
12625000    1.0308757 1.8795318e-05   0.49831595 0.0071312711            0   0.49118468    1.5334276    2.0317435    2.6732904 
12630000    1.0117433 -7.333116e-05   0.50662887 0.0084479376            0   0.49818093    1.5049681     2.011597  -0.49143995 
12635000   0.99596509 -0.00011070444   0.53150035  0.025523314            0   0.50597704    1.4814981    2.0129984    -1.765713 
12640000    0.9959994 1.1616374e-05    0.5470598  0.047888885            0   0.49917092    1.4815491    2.0286089    2.4251145 
12645000    1.0472831 0.00024081776   0.47188179  0.045738366            0   0.42614342    1.5578337    2.0297155    10.249628 
12650000    1.0265142 8.7660898e-05   0.47273776  0.010624301            0   0.46211346    1.5269399    1.9996777    4.9918363 
12655000   0.96296695 -7.1722712e-06   0.56433082  0.027167062            0   0.53716376    1.4324133    1.9967442    1.7519306 
12660000   0.99850092 0.00013392699   0.49758144  0.021155658            0   0.47642579    1.4852701    1.9828516     6.554226 
12665000     1.004107 9.8448237e-05   0.47268801 0.0087544789            0   0.46393353    1.4936091    1.9662971    5.3266636 
12670000   0.95210408 -2.903187e-06   0.53000772  0.036780024            0    0.4932277    1.4162548    1.9462625    1.8471671 
12675000   0.91350195 -8.837299e-05   0.57534009  0.046886655            0   0.52845343    1.3588342    1.9341742   -1.0822905 
12680000   0.93474895 -6.5942511e-05   0.54357921  0.013240035            0   0.53033917    1.3904391    1.9340183  -0.31681945 
12685000    1.0067016 -1.918484e-05   0.43685977  0.024060845            0   0.41279892    1.4974686    1.9343284    1.2794858 
12690000   0.99872878 -3.854599e-05   0.45143086   0.02617575            0    0.4252551    1.4856091    1.9370399   0.62133678 
12695000    0.9564624 -0.0001085029   0.49757912  0.025724121            0     0.471855    1.4227378    1.9203169   -1.7832488 
12700000     0.995432 -2.5450231e-05   0.46735573   0.01394651            0   0.45340922    1.4807051    1.9480608    1.0793596 
12705000   0.94091358 4.7591734e-05   0.53681809  0.020299093            0     0.516519     1.399609     1.936427    3.5608916 
12710000   0.95677061 -1.8107102e-05   0.52234763  0.043571579            0   0.47877605    1.4231963    1.9455439    1.3274881 
12715000   0.94820238 -3.470201e-05   0.52930708   0.06726611            0   0.46204097     1.410451    1.9397581   0.75526284 
12720000   0.90226968 -7.990875e-05   0.61104802  0.030538159            0   0.58050986    1.3421262    1.9531742  -0.77437782 
12725000   0.96818331 -6.2737118e-05   0.51416758  0.021427285            0    0.4927403    1.4401727    1.9543403  -0.18708669 
12730000   0.98164057 3.9025571e-05   0.52323856  0.032532396            0   0.49070616    1.4601903    1.9834289    3.3155017 
12735000   0.92788488 2.8822125e-06   0.61651267  0.025572877            0   0.59093979    1.3802288    1.9967414     2.095121 
12740000   0.98397971 -4.6494202e-05   0.53030246 0.0076439546            0   0.52265851    1.4636698    1.9939723   0.40697019 
12745000   0.96872341 8.5442542e-06   0.55696048  0.032224622            0   0.52473586    1.4409761    1.9979366    2.2895804 
12750000    1.0103427 5.2479848e-05   0.49446955  0.030336632            0   0.46413292    1.5028848    1.9973543    3.7886665 
12755000    0.9859538 2.2576346e-05   0.52417469  0.019710495            0   0.50446419    1.4666063     1.990781    2.7613869 
12760000   0.98717043 -5.4063113e-05    0.5285322    0.0437662            0     0.484766     1.468416    1.9969482   0.15159397 
12765000   0.95908632 -5.7636407e-05    0.5743259  0.056602185            0   0.51772371    1.4266409    2.0009668  0.033644116 
12770000    1.0146744 -1.5961666e-05   0.49604481  0.032884095            0   0.46316072    1.5093281    2.0053729    1.4605481 
12775000    0.9422463 -4.0244208e-05   0.61714521  0.056199808            0   0.56094541    1.4015914    2.0187366    0.6450676 
12780000    1.0510354 7.0129274e-05   0.46408758  0.024413967            0   0.43967361    1.5634152    2.0275027    4.4212486 
12785000   0.93393746 8.7845129e-05   0.62497669  0.010498034            0   0.61447865     1.389232    2.0142087    5.0126557 
12790000    1.0084003 3.8974561e-05   0.49998583  0.025993551            0   0.47399228    1.4999954    1.9999813    3.3303129 
12795000   0.95996162 7.9915273e-05   0.58686221  0.038529296            0   0.54833291    1.4279429    2.0148051    4.7425798 
12800000   0.99161386 0.00024732512   0.52844186  0.015429527            0   0.51301234    1.4750256    2.0034675    10.445498 
12805000    1.1033342 0.00013052025   0.38085371   0.01060793            0   0.37024578    1.6412096    2.0220633    6.4771544 
12810000    1.0200872 1.7826906e-05   0.51243137  0.009219602            0   0.50321177    1.5173796     2.029811    2.6383027 
12815000    1.0253955 0.00021080984    0.4940713  0.035018619            0   0.45905268    1.5252759    2.0193472    9.2149897 
12820000   0.97656121 0.0001254315   0.54498242  0.049118965            0   0.49586345    1.4526348    1.9976172    6.2790123 
12825000    1.0767023 -8.7107714e-05   0.38574631 0.0098914773            0   0.37585483    1.6015947     1.987341  -0.98593566 
12830000   0.95884895 2.5754206e-05   0.55193832 0.0045598393            0   0.54737848    1.4262878    1.9782261    2.8573031 
12835000   0.95891654 7.6091914e-05   0.55403096  0.010442118            0   0.54358885    1.4263884    1.9804193      4.57769 
12840000   0.96944119 -6.9184329e-05   0.49677726   0.01209032            0   0.48468694    1.4420438     1.938821  -0.42267074 
12845000   0.96873167 -0.00010440528   0.47197509  0.031768048            0   0.44020705    1.4409884    1.9129635   -1.6507366 
12850000   0.96229189 -7.6946001e-05   0.49537198  0.052488362            0   0.44288362    1.4314092    1.9267812  -0.69964233 
12855000   0.97009773 -7.608877e-05   0.47236581  0.026539333            0   0.44582648    1.4430204    1.9153862  -0.68177716 
12860000   0.99682309 7.5616469e-05   0.46324213  0.013909769            0   0.44933236    1.4827744    1.9460165    4.5270586 
12865000    1.0296376 2.4918804e-05   0.44369725  0.013046037            0   0.43065121    1.5315859    1.9752831    2.8258449 
12870000    1.0550634 4.5735876e-05   0.41284321 0.0081226213            0   0.40472059    1.5694068      1.98225    3.5433679 
12875000   0.97429059 0.00018710334   0.51535507    0.0391483            0   0.47620677    1.4492573    1.9646123     8.351073 
12880000    1.0079939 0.00010066217   0.45755851  0.018871275            0   0.43868724     1.499391    1.9569495    5.3928849 
12885000   0.97360976 -8.2157567e-06   0.52529894  0.038023221            0   0.48727572    1.4482445    1.9735434    1.6931123 
12890000   0.99312371 5.9621614e-05    0.4879553  0.045233013            0   0.44272229    1.4772715    1.9652268    4.0003112 
12895000    1.0346821 0.00012354031   0.42917405  0.035817384            0   0.39335667    1.5390896    1.9682637    6.1851062 
12900000   0.97163647 -5.8101069e-05   0.51507945  0.019480909            0   0.49559854    1.4453092    1.9603887 -0.022794469 
12905000    1.0109504 3.6199236e-06   0.43792397   0.01304989            0   0.42487408    1.5037887    1.9417126    2.0652727 
12910000   0.99042768 4.318845e-05   0.44973111  0.018706051            0   0.43102505    1.4732612    1.9229923     3.397158 
12915000   0.93109373 -4.7806342e-05   0.53131577  0.037660489            0   0.49365528    1.3850019    1.9163177   0.28452788 
12920000   0.91778064 -0.00015354143   0.53733054  0.014253017            0   0.52307752    1.3651987    1.9025292   -3.3383515 
12925000   0.92252284 -0.0002446337    0.5404206 0.0016339446            0   0.53878665    1.3722527    1.9126733   -6.4374901 
12930000   0.95103131 -4.7692019e-05   0.50777928 0.0086922095            0   0.49908708    1.4146591    1.9224384   0.29455075 
12935000   0.93537012 4.518836e-05     0.537401  0.046351875            0   0.49104912    1.3913631    1.9287641    3.4711934 
12940000    1.0001536 -3.4829118e-05    0.4391877  0.027120973            0   0.41206672    1.4877285    1.9269162   0.73808229 
12945000   0.96375861 -4.1379993e-05    0.4922092  0.016518526            0   0.47569068    1.4335909    1.9258001   0.51336303 
12950000   0.89071868 -9.2258422e-05   0.58853371  0.029639301            0   0.55889441     1.324944    1.9134778   -1.2356097 
12955000   0.86975928 2.7095489e-05   0.61944997  0.020590763            0    0.5988592    1.2937669    1.9132169    2.8380763 
12960000    1.0118916 4.7263558e-05   0.41229618  0.033030969            0   0.37926521    1.5051888    1.9174849    3.5307477 
12965000   0.96205219 -3.2426146e-05   0.47869659  0.008344894            0   0.47035169    1.4310526    1.9097492   0.80293677 
12970000   0.89268196 1.2881866e-05   0.58643482  0.018483441            0   0.56795138    1.3278644    1.9142992    2.3540003 
12975000   0.94888229 0.00011290119   0.46988884  0.017912469            0   0.45197637    1.4114624    1.8813512    5.7350451 
12980000   0.96623176 0.00017208691   0.46622854  0.036573846            0   0.42965469    1.4372697    1.9034983     7.777398 
12985000   0.95576088 -2.6728911e-06   0.47238098  0.019342903            0   0.45303808    1.4216943    1.8940753    1.8028406 
12990000   0.87322104 -3.6116893e-05   0.60735216  0.025230162            0     0.582122    1.2989163    1.9062685   0.67347851 
12995000   0.89239911 1.8501615e-05   0.56489558  0.015846777            0    0.5490488    1.3274437    1.8923393    2.5238611 
13000000   0.95068464 -5.2689738e-05   0.47578387  0.032504871            0     0.443279    1.4141434    1.8899273  0.091450896 
13005000   0.93628139 -6.8811596e-05   0.50933194  0.021485621            0   0.48784632    1.3927186    1.9020505  -0.44671866 
13010000   0.99700965 0.00015943064    0.4158705 0.0037797402            0   0.41209076    1.4830519    1.8989224    7.3408217 
13015000   0.96566714 0.00018044034   0.44640569 0.0054908394            0   0.44091485    1.4364299    1.8828356    8.0418658 
13020000   0.94454872 -8.2096678e-05   0.46567134    0.0191047            0   0.44656664    1.4050162    1.8706876  -0.93154572 
13025000   0.97246382 -3.4638908e-05   0.41552114  0.012188911            0   0.40333223    1.4465399    1.8620611   0.67971968 
13030000   0.84434867 -1.3602711e-05   0.59497888  0.019310562            0   0.57566831    1.2559686    1.8509475    1.3866417 
13035000     0.857537 -0.00020929408   0.57623294  0.017565335            0   0.55866761    1.2755863    1.8518192   -5.2920855 
13040000   0.92505934 -8.3857836e-05   0.48596316  0.027684458            0    0.4582787    1.3760258    1.8619889   -1.0003585 
13045000   0.88658467 7.6666661e-05   0.53590148  0.036093305            0   0.49980817    1.3187947    1.8546962    4.4715849 
13050000   0.88219368 5.9222828e-05   0.54864605  0.022688989            0   0.52595706    1.3122631    1.8609092    3.8823817 
13055000   0.92912959 -1.1538494e-05   0.45067834  0.014275426            0   0.43640291    1.3820803    1.8327586    1.4389113 
13060000   0.93319784 -8.0113596e-05   0.44009116   0.01784403            0   0.42224713    1.3881318     1.828223  -0.90632114 
13065000   0.88857745 -9.1713555e-05   0.53583884  0.042941935            0   0.49289691     1.321759    1.8575978   -1.2728916 
13070000    0.8451328 6.7589884e-05     0.604222  0.031190449            0   0.57303155     1.257135     1.861357    4.1684251 
13075000   0.93007589 3.5629109e-05   0.48962992  0.047280511            0   0.44234941    1.3834879    1.8731178    3.0892581 
13080000     0.921578 1.6173603e-05   0.49701115  0.026760646            0   0.47025051    1.3708473    1.8678584    2.4199174 
13085000   0.89947975 6.868297e-05   0.53249426  0.016239824            0   0.51625444    1.3379761    1.8704704    4.2148491 
13090000   0.93962979 9.5416275e-06   0.50778051 0.0048988276            0   0.50288168    1.3976993    1.9054798    2.2311674 
13095000   0.96035524 4.2603956e-05   0.49015713  0.011649236            0    0.4785079    1.4285284    1.9186855    3.3729006 
13100000   0.88650282 0.00011221505   0.57884756  0.022886697            0   0.55596087    1.3186729    1.8975205    5.7277944 
13105000   0.95030255 7.7758548e-05   0.50653152   0.03569675            0   0.47083477     1.413575    1.9201066     4.574265 
13110000   0.96616506 -9.1797796e-05   0.48010752  0.036243206            0   0.44386432    1.4371705     1.917278   -1.2160867 
13115000   0.91093711 -0.00019381263   0.57547236  0.024295678            0   0.55117668    1.3550189    1.9304913   -4.6849799 
13120000   0.99381488 -4.4292181e-05   0.44887551  0.026111451            0   0.42276406    1.4782996    1.9271751   0.41533535 
13125000   0.93756194 6.253933e-06   0.50790974  0.020675817            0   0.48723392    1.3946234    1.9025331    2.1160007 
13130000   0.93878569 -9.8033522e-05   0.48976689  0.021405261            0   0.46836163    1.3964437    1.8862106   -1.4600003 
13135000   0.93221051 3.3133717e-05   0.51609675  0.021757565            0   0.49433919    1.3866631    1.9027599    3.0337241 
13140000    0.9112234 1.6118145e-05    0.5510167  0.013321652            0   0.53769505    1.3554448    1.9064615    2.4566275 
13145000    0.9037105 -7.6167638e-05   0.56696415  0.047632914            0   0.51933124    1.3442694    1.9112335  -0.68862184 
13150000   0.92477681 7.6492028e-05   0.53850934  0.026117537            0    0.5123918    1.3756055    1.9141148    4.5250427 
13155000    0.9368665 4.1143374e-05   0.49403245  0.016116731            0   0.47791571    1.3935889    1.8876214    3.2919819 
13160000   0.94160569 -6.9736638e-05   0.50814756  0.031263206            0   0.47688435    1.4006385     1.908786  -0.47155788 
13165000   0.93915578 -0.0001074827    0.5247604  0.012401141            0   0.51235926    1.3969942    1.9217546   -1.7469881 
13170000   0.91923002 -0.00011972065   0.53719456  0.037968476            0   0.49922608    1.3673547    1.9045492   -2.1819158 
13175000   0.88143131 -5.0495336e-05   0.58999857  0.061360171            0    0.5286384    1.3111291    1.9011276   0.17755353 
13180000   0.95319101 8.2502884e-05   0.48028999  0.026171085            0    0.4541189    1.4178716    1.8981616    4.7142601 
13185000   0.96328636 8.4873905e-05   0.45743972  0.007898286            0   0.44954143    1.4328885    1.8903282    4.7873575 
13190000   0.95761775 9.6164903e-06   0.47783849  0.010984592            0    0.4668539    1.4244564    1.9022949    2.2305378 
13195000   0.88414062 -6.3551985e-05   0.59149467  0.015789402            0   0.57570527    1.3151592    1.9066538  -0.26258725 
13200000   0.95483684 -6.4715819e-05   0.48745762  0.020640439            0   0.46681718    1.4203198    1.9077774  -0.30118921 
13205000   0.97733081 8.0286434e-05   0.45604478  0.024136797            0   0.43190798    1.4537796    1.9098244     4.650268 
13210000   0.89539741 0.00016307067   0.56952651  0.024874536            0   0.54465197    1.3319037    1.9014302    7.4675755 
13215000   0.93555179 7.4258175e-05   0.51468928  0.014156885            0   0.50053239    1.3916333    1.9063226    4.4410016 
13220000   0.90524264 5.9996423e-05   0.55014637  0.010196098            0   0.53995027    1.3465484    1.8966948    3.9445727 
13225000   0.92835341 5.1962525e-06   0.49750814  0.024451314            0   0.47305682    1.3809257    1.8784338    2.0557993 
13230000   0.90821262 -1.7944921e-05   0.51864113 0.0066779072            0   0.51196323    1.3509663    1.8696074    1.2570874 
13235000   0.90694124 -1.1555162e-06   0.51466823  0.022042855            0   0.49262538    1.3490751    1.8637433    1.8243017 
13240000   0.92079888 0.00011640626   0.49326113  0.038998557            0   0.45426257    1.3696883    1.8629495    5.8362833 
13245000   0.93664391 0.0002072544   0.47807463  0.056837009            0   0.42123763    1.3932578    1.8713324     8.945616 
13250000   0.94008377 8.1604165e-05   0.46382095  0.025176668            0   0.43864428    1.3983746    1.8621956    4.6476177 
13255000   0.97667031 -5.8702652e-05   0.43444443  0.036602306            0   0.39784212    1.4527971    1.8872415  -0.11647566 
13260000    0.9162103 -8.5362793e-05   0.51610548  0.032752976            0    0.4833525    1.3628628    1.8789683   -1.0347484 
13265000   0.91262658 2.6605244e-05   0.53737586  0.033857888            0   0.50351797     1.357532    1.8949079    2.8030336 
13270000   0.91573945 3.0755929e-06   0.53089684  0.021798625            0   0.50909821    1.3621624    1.8930593    1.9980395 
13275000    0.9723079 1.4438982e-05   0.44666496 0.0052580716            0   0.44140689     1.446308     1.892973    2.3858236 
13280000   0.96042442 6.6973999e-05    0.4502229 0.0029243717            0   0.44729853    1.4286313    1.8788542    4.1649001 
13285000   0.93798414 -1.304078e-05   0.48721752   0.00306766            0   0.48414986    1.3952514    1.8824689    1.4373436 
13290000   0.92568129 -0.00010982454   0.49564058  0.010747516            0   0.48489307    1.3769509    1.8725915    -1.876086 
13295000   0.94736848 -0.00015176651   0.49578319  0.017861688            0    0.4779215    1.4092106    1.9049938   -3.2753032 
13300000    0.9160199 -0.00010585603   0.52997903 0.0059624894            0   0.52401654    1.3625796    1.8925586   -1.7206604 
13305000   0.88433336 -3.3483404e-05   0.58474447 0.0099002626            0   0.57484421    1.3154459    1.9001903   0.75729015 
13310000   0.95272732 7.3254672e-06   0.50962797  0.022169559            0   0.48745841    1.4171819    1.9268099    2.1768525 
13315000   0.96693004 -5.1298281e-05   0.48920146  0.024232028            0   0.46496943    1.4383084    1.9275099   0.17652856 
13320000   0.95235831 -8.2271288e-05   0.54233838  0.025292914            0   0.51704546     1.416633    1.9589714  -0.84922193 
13325000   0.96399854 -6.6483611e-05   0.50391379  0.021362023            0   0.48255177    1.4339478    1.9378616  -0.33144563 
13330000   0.96822444 9.1819611e-06   0.49379851  0.017403413            0   0.47639509    1.4402338    1.9340324    2.2474433 
13335000   0.98114239 0.00010891687   0.47101605  0.013893949            0    0.4571221    1.4594493    1.9304654    5.6481613 
13340000   0.99449933 -1.3079186e-05   0.45668311 0.0057098442            0   0.45097327    1.4793178    1.9360009    1.4895647 
13345000   0.95647673 -0.00015385636   0.50656742 0.0064012457            0   0.50016618    1.4227591    1.9293266    -3.322304 
13350000   0.98874981 -4.892517e-05   0.46477285  0.030700408            0   0.43407244    1.4707653    1.9355382   0.26555904 
13355000   0.98632653 0.00013101463   0.46256423  0.032517962            0   0.43004627    1.4671607    1.9297249    6.4016909 
13360000   0.84623487 0.00015398511   0.65175235  0.032663036            0   0.61908932    1.2587744    1.9105267    7.1665517 
13365000   0.91826339 0.0001068645   0.52579969  0.029379364            0   0.49642033    1.3659168    1.8917165     5.539358 
13370000   0.94781483 -1.8891886e-05   0.47744222   0.01902108            0   0.45842114    1.4098746    1.8873168    1.2424737 
13375000   0.88238791 3.2241711e-05   0.60092776  0.016668643            0   0.58425911     1.312552    1.9134798    3.0139968 
13380000   0.92700842 3.2447243e-05     0.534068  0.013581382            0   0.52048662     1.378925     1.912993    3.0205256 
13385000   0.99590153 -6.0504402e-05   0.44228007  0.013255646            0   0.42902443    1.4814035    1.9236836  -0.14153333 
13390000   0.97874296 2.0574396e-07   0.46810415  0.037534137            0   0.43057001    1.4558801    1.9239843     1.931007 
13395000   0.92311409 -8.7370034e-05    0.5814264   0.03342348            0   0.54800292    1.3731322    1.9545586   -1.0276719 
13400000   0.98063041 -2.7263643e-05   0.48712118  0.022846203            0   0.46427498    1.4586877    1.9458089    1.0152099 
13405000    1.0259031 0.00013410451   0.43364958  0.022512683            0   0.41113689    1.5260309    1.9596805    6.5371144 
13410000   0.96251199 0.0001217106   0.50200072 0.0067182844            0   0.49528243    1.4317366    1.9337373    6.0881258 
13415000   0.95893227 6.2742448e-05   0.52551968    0.0129172            0   0.51260248    1.4264118    1.9519314    4.0935403 
13420000   0.96669052 0.00012154471   0.51427336 0.0096201069            0   0.50465325    1.4379521    1.9522255    6.1009516 
13425000    0.9646548 0.00012115215   0.51399827  0.012169199            0   0.50182907     1.434924    1.9489223     6.084249 
13430000   0.94943962 3.6095487e-05   0.53859584  0.053139431            0   0.48545641    1.4122914    1.9508873    3.1829466 
13435000   0.99024013 -7.6018156e-05   0.45269695  0.030965506            0   0.42173144    1.4729822    1.9256791  -0.66907391 
13440000   0.96047138 -1.3153044e-05   0.50776226  0.025667608            0   0.48209465    1.4287012    1.9364634    1.4875062 
13445000   0.91815459 0.00013970182   0.56263379  0.071047978            0   0.49158582     1.365755    1.9283887    6.6968775 
13450000   0.96102962 5.2930345e-05   0.47477694  0.017881578            0   0.45689536    1.4295316    1.9043085    3.7109976 
13455000   0.94169598 5.8200478e-07   0.49933771  0.032727122            0   0.46661058    1.4007728    1.9001105    1.9199762 
13460000   0.90879382 -7.9063954e-05   0.55312193  0.049923399            0   0.50319853    1.3518308    1.9049527  -0.79376359 
13465000   0.91648076 -0.00022268288   0.55681739  0.034419218            0   0.52239817    1.3632651    1.9200825   -5.6808265 
13470000   0.98300379 -8.3040928e-05   0.42838227 0.0059909787            0   0.42239129    1.4622181    1.8906004  -0.94386328 
13475000     0.933722 3.6238812e-05   0.50919665  0.019402245            0    0.4897944    1.3889115    1.8981081    3.1350596 
13480000   0.90736595 -1.8685538e-05     0.559045   0.01813168            0   0.54091332    1.3497068    1.9087518    1.2709522 
13485000   0.89250976 -0.00011742506   0.58092662  0.016606273            0   0.56432035    1.3276083    1.9085349   -2.0995739 
13490000   0.96724353 -7.074645e-05   0.48158407  0.029211263            0   0.45237281    1.4387748    1.9203588  -0.49445335 
13495000   0.95646901 7.3814661e-05   0.47595475 0.0087865293            0   0.46716822    1.4227477    1.8987024    4.4182428 
13500000   0.88893446 0.00019832026   0.58997897  0.010983752            0   0.57899522      1.32229     1.912269    8.6816004 
13505000   0.93132304 4.8134343e-05   0.52862392   0.00826033            0   0.52036359     1.385343    1.9139669    3.5569525 
13510000    0.9040564 -6.6074449e-05   0.57832728  0.028934532            0   0.54939275    1.3447839    1.9231112     -0.33223 
13515000   0.88994911 -1.8527927e-06   0.60744524  0.017737755            0   0.58970748    1.3237993    1.9312445    1.8680025 
13520000   0.98947566 0.00010135621   0.48143969 0.0097284116            0   0.47171128     1.471845    1.9532847    5.4129101 
13525000   0.93313237 8.3082312e-05   0.58598807  0.014368828            0   0.57161924    1.3880344    1.9740225    4.8098987 
13530000   0.99976465 -9.1574823e-05   0.50641892 0.0039186429            0   0.50250027    1.4871499    1.9935688   -1.1321851 
13535000   0.98682017 1.624844e-05   0.55090492  0.007918175            0   0.54298674     1.467895    2.0187999    2.5734134 
13540000    1.0304427 0.00016077037   0.50872737  0.017098981            0   0.49162839    1.5327835    2.0415109    7.5291396 
13545000   0.97466264 2.341737e-05   0.58213268  0.028788126            0   0.55334455    1.4498107    2.0319434    2.8312562 
13550000   0.94326141 -0.00011528951   0.62055651  0.062027306            0    0.5585292    1.4031014    2.0236579   -1.9115574 
13555000   0.99200822 -9.5573224e-05   0.52960304  0.021756405            0   0.50784664    1.4756122    2.0052153   -1.2570175 
13560000    1.0335565 -2.0982891e-05   0.48204273 0.0056174953            0   0.47642523    1.5374153     2.019458     1.303242 
13565000    1.0024695 8.8281967e-05   0.53218241  0.012235505            0    0.5199469    1.4911734    2.0233558    5.0367136 
13570000    1.0025509 4.3950905e-05   0.52368775  0.025573857            0   0.49811389    1.4912945    2.0149823    3.5151731 
13575000    1.0299447 -0.00010207879   0.50910768  0.035252465            0   0.47385522    1.5320428    2.0411505   -1.4431388 
13580000    1.0176253 -3.0333218e-07   0.51322047  0.033680767            0    0.4795397    1.5137176     2.026938    2.0165843 
13585000   0.97166406 8.8482876e-05   0.58578587  0.012522774            0    0.5732631    1.4453503    2.0311362    5.0513517 
13590000    1.0057841 -5.6757354e-05   0.49799638 0.0082524328            0   0.48974394    1.4961038    1.9941002   0.05678255 
13595000    1.0237082 -2.8622233e-05    0.4841459   0.02925935            0   0.45488655     1.522766    2.0069119    1.0299397 
13600000   0.98408784 -2.6061194e-05   0.55122668  0.050195815            0   0.50103086    1.4638307    2.0150573    1.1255019 
13605000   0.92845591 -4.5301244e-05   0.62443166  0.023491539            0   0.60094012    1.3810782    2.0055098   0.45922738 
13610000   0.96374449 8.8372714e-05   0.56835034  0.022879922            0   0.54547042    1.4335699    2.0019203    5.0183756 
13615000    1.0063877 1.5848129e-05   0.54117937  0.016847054            0   0.52433232    1.4970018    2.0381811    2.5791306 
13620000    1.0355624 -0.00019662789   0.51206253  0.014431283            0   0.49763125    1.5403991    2.0524616   -4.6591038 
13625000    1.0587602 -8.9737242e-05   0.46682999 0.0058847778            0   0.46094521    1.5749058    2.0417358   -1.0212954 
13630000    1.0428824 2.3195453e-06   0.47832931  0.005133901            0   0.47319541    1.5512876    2.0296169    2.1087907 
13635000    1.0283978 0.00013916834   0.48810809  0.047603936            0   0.44050415    1.5297418    2.0178499    6.7681294 
13640000   0.98896149 0.00022124238   0.53553611  0.055082642            0   0.48045347    1.4710802    2.0066163    9.5583563 
13645000    1.0010963 7.0019907e-05   0.49927378  0.021487517            0   0.47778626    1.4891307    1.9884045    4.3784173 
13650000   0.98384904 -1.0521124e-05   0.54136331  0.032955746            0   0.50840757    1.4634754    2.0048388    1.6457177 
13655000     1.003132 -0.00016572323   0.53078193  0.055240172            0   0.47554176    1.4921589    2.0229408   -3.6337455 
13660000   0.99915254 -0.00013362019   0.51700036   0.01479175            0   0.50220861    1.4862394    2.0032398   -2.5576628 
13665000    1.0049617 -2.5516946e-05   0.52367449   0.02185306            0   0.50182143    1.4948805     2.018555    1.1475766 
13670000   0.98516618 4.3205546e-05   0.56702669  0.018171646            0   0.54885504    1.4654347    2.0324614    3.5072107 
13675000   0.99892473 0.0001335811    0.5408027  0.024148347            0   0.51665435    1.4859005    2.0267032    6.5862715 
13680000    1.0228579 -2.3867427e-05   0.50271482  0.018581361            0   0.48413345    1.5215011    2.0242159    1.2095411 
13685000    1.0285569 -0.00012059208   0.49742336  0.014151557            0    0.4832718    1.5299784    2.0274018    -2.088808 
13690000   0.95999347 0.00013271995   0.61172183  0.043959073            0   0.56776275    1.4279903    2.0397121    6.5698864 
13695000    1.0296434 0.00013334306    0.4971875  0.012469693            0   0.48471781    1.5315946    2.0287821     6.580225 
13700000    1.0087956 -0.00020122913   0.53652158  0.022178067            0   0.51434351    1.5005835    2.0371051    -4.831516 
13705000    1.0505138 -0.0001849881   0.48270572  0.016532329            0   0.46617339    1.5626393     2.045345   -4.2689154 
13710000    1.0894624 -4.9428458e-05   0.45340613  0.011571735            0    0.4418344    1.6205753    2.0739814   0.38682338 
13715000    1.0690691 -5.3609658e-05   0.47081888 0.0073099963            0   0.46350889    1.5902403    2.0610592   0.23118284 
13720000    1.0346811 0.00013724271   0.49080842 0.00048019134            0   0.49032823    1.5390882    2.0298966    6.7144476 
13725000    1.0377808 0.00015733916   0.48711905 0.0012376626            0   0.48588139    1.5436989    2.0308179    7.4013281 
13730000   0.99448088 3.777046e-05    0.5548411  0.016310114            0   0.53853098    1.4792903    2.0341314    3.3233631 
13735000    1.0213573 2.3278856e-05   0.52920199   0.02335767            0   0.50584432     1.519269     2.048471    2.8430559 
13740000   0.96981647 7.7962446e-05   0.60911177  0.038727607            0   0.57038416     1.442602    2.0517138    4.7128319 
13745000    1.0519823 0.00012364661   0.50767515  0.017541549            0    0.4901336    1.5648237    2.0724989    6.2929699 
13750000     1.016572 0.00010045069   0.56985033  0.012603592            0   0.55724674    1.5121509    2.0820012    5.5107181 
13755000    1.0833889 -1.5360389e-05   0.46815141  0.014134768            0   0.45401664     1.611541    2.0796924    1.5553911 
13760000    1.0090121 -0.0001170087   0.56682953  0.022497057            0   0.54433247    1.5009055    2.0677351    -1.926162 
13765000   0.98149448 -8.1797644e-06    0.6103465  0.038305226            0   0.57204127     1.459973    2.0703195    1.7911169 
13770000    1.0160337 5.9654594e-05   0.57475106  0.040673806            0   0.53407726    1.5113501    2.0861012    4.1223114 
13775000    1.0863428 0.00010732908   0.49839437  0.027739967            0   0.47065441    1.6159349    2.1143293    5.7778286 
13780000    1.0400275 6.5494931e-05   0.55645598  0.019358142            0   0.53709784    1.5470409    2.1034969    4.3390572 
13785000    1.0532762 -8.5088409e-05   0.51883059  0.034027245            0   0.48480335    1.5667483    2.0855789  -0.81877209 
13790000    1.0598787 -3.2115654e-05   0.51331499  0.026621554            0   0.48669344    1.5765695    2.0898845    0.9936702 
13795000     1.100989 0.00017178075   0.47062102   0.01161299            0   0.45900803    1.6377212    2.1083422    7.9717917 
13800000    1.1153629 0.00020533813   0.42946819  0.047277777            0   0.38219041    1.6591023    2.0885705    9.0974455 
13805000    1.0149479 -2.0511889e-05   0.56306948  0.055742145            0   0.50732733    1.5097351    2.0728045    1.3726654 
13810000    1.0081221 -0.00019404899   0.59182399  0.020976583            0   0.57084741    1.4995816    2.0914056   -4.5321333 
13815000   0.95501919 -4.0311794e-05   0.66077635  0.023088976            0   0.63768738     1.420591    2.0813674    0.7053915 
13820000    1.0186867 8.0283204e-05   0.53933457  0.020696467            0    0.5186381    1.5152965     2.054631    4.7949644 
13825000     1.065119 3.6790766e-05   0.47268006  0.013382397            0   0.45929766    1.5843646    2.0570446    3.3128361 
13830000     1.037849 6.6117081e-06   0.51285543  0.012660299            0   0.50019513    1.5438004    2.0566558    2.2823354 
13835000    1.1039619 -5.4181398e-05   0.43173365  0.016493226            0   0.41524042    1.6421433    2.0738769   0.22448519 
13840000    1.0496084 -6.3044178e-05   0.51419591  0.015062849            0   0.49913306    1.5612925    2.0754884 -0.076419525 
13845000    1.0109278 -9.1843705e-06   0.54063586  0.017673023            0   0.52296283    1.5037551    2.0443909    1.7308978 
13850000   0.95914129 3.1125216e-05   0.64599415  0.022729849            0    0.6232643    1.4267227    2.0727168    3.1351242 
13855000    1.0249888 4.9147233e-05   0.53954527  0.016912326            0   0.52263294    1.5246709    2.0642161     3.741775 
13860000    1.0348795 0.00021151614   0.53386328  0.035334938            0   0.49852834    1.5393832    2.0732465    9.2929975 
13865000    1.0878809 -5.4236764e-07   0.44968048  0.011795322            0   0.43788516    1.6182228    2.0679033    2.0493905 
13870000    1.0261786 -0.00020019784   0.54388809  0.036854313            0   0.50703377    1.5264407    2.0703288   -4.7630909 
13875000    1.0250642 -5.5621361e-05   0.55286495  0.072429523            0   0.48043542     1.524783    2.0776479   0.17910546 
13880000    1.0555688 -2.8071742e-06    0.5063342  0.015705571            0   0.49062863    1.5701585    2.0764927    1.9806745 
13885000    1.0468121 -0.0001199777   0.50957372 0.0080923408            0   0.50148138     1.557133    2.0667067    -2.028532 
13890000    1.0687158 -1.7714412e-05   0.45725751 0.0027544322            0   0.45450308    1.5897147    2.0469723    1.4423203 
13895000    1.0811064 0.00011023336   0.45931874 0.0046211266            0   0.45469762    1.6081458    2.0674645    5.8300965 
13900000    1.0395821 8.611001e-05   0.50872464  0.022341671            0   0.48638297    1.5463783     2.055103    4.9943246 
13905000   0.96587804 0.00010339211   0.60953962  0.034880441            0   0.57465918    1.4367436    2.0462832    5.5754006 
13910000    1.0838355 4.9660801e-06    0.4296621  0.044223311            0   0.38543879    1.6122052    2.0418673    2.2113762 
13915000   0.98911262 -1.2066816e-05   0.56190471  0.025780065            0   0.53612464     1.471305    2.0332097    1.6213291 
13920000    1.0351294 3.8686312e-05   0.49143692  0.031566946            0   0.45986997     1.539755    2.0311919    3.3516847 
13925000    1.0161259 4.5198187e-05   0.53070558  0.030103734            0   0.50060184    1.5114873    2.0421929    3.5849577 
13930000      1.05138 -2.9222148e-05   0.45511389  0.013264046            0   0.44184984    1.5639278    2.0190416    1.0215923 
13935000    1.0429596 -2.9945731e-05   0.47382923  0.014365807            0   0.45946343    1.5514024    2.0252316     1.003084 
13940000   0.99478441 3.8730616e-05   0.54659251  0.019810969            0   0.52678154    1.4797418    2.0263343    3.3483394 
13945000    1.0996031 2.6450565e-05   0.37806366  0.013564193            0   0.36449947    1.6356597    2.0137233    2.9165693 
13950000    0.9489467 -0.00010640795   0.58297416  0.012659247            0   0.57031492    1.4115582    1.9945324   -1.6375256 
13955000   0.97743827 -7.1970312e-05   0.52202647  0.021065212            0   0.50096126    1.4539394    1.9759659  -0.48062075 
13960000    1.0156824 3.0304122e-05   0.45275422  0.023818813            0    0.4289354    1.5108276    1.9635818    2.9979625 
13965000   0.99868175 3.3856055e-05   0.47731252  0.025323207            0   0.45198931    1.4855391    1.9628516    3.1184716 
13970000   0.94988725 0.00021338606   0.55480858  0.023465222            0   0.53134336    1.4129573    1.9677659    9.2513435 
13975000    1.0232782 2.8266411e-05   0.46623866  0.028198764            0    0.4380399    1.5221263     1.988365    2.9531918 
13980000    1.0177041 -4.962013e-05   0.49111034  0.021018062            0   0.47009228    1.5138348    2.0049452   0.31124473 
13985000    1.0155872 0.0001397109   0.49209406  0.021663768            0   0.47043029     1.510686    2.0027801    6.7715788 
13990000    1.0097592 0.00017217418    0.5197668  0.038918223            0   0.48084858    1.5020168    2.0217836    7.8986621 
13995000   0.99080757 -3.2034717e-05   0.54455982  0.042283581            0   0.50227624    1.4738263    2.0183861   0.92493441 
14000000    1.0255322 -6.1750043e-05   0.50262108  0.028629552            0   0.47399153    1.5254792    2.0281002 -0.079634555 
14005000    1.0540491 -4.1903603e-05   0.48525706  0.014956934            0   0.47030013    1.5678981    2.0531551   0.62284547 
14010000    1.0611757 -9.1922674e-05   0.48646918  0.013887949            0   0.47258123    1.5784989    2.0649681   -1.0726592 
14015000    1.0068109 1.6842148e-06   0.55178094  0.018235107            0   0.53354583    1.4976312    2.0494122       2.1069 
14020000    1.0136652 1.3021005e-05   0.54154621  0.050720983            0   0.49082522     1.507827    2.0493733    2.4938236 
14025000    1.0182753 -0.00012173486   0.53171181  0.040176722            0   0.49153508    1.5146845    2.0463963   -2.1088202 
14030000    1.0779155 1.5322565e-05   0.47833787 0.0040783788            0   0.47425949    1.6033994    2.0817372    2.6047475 
14035000    1.0735346 5.2753828e-05   0.48241202 0.0031589954            0   0.47925303    1.5968828    2.0792948    3.8799588 
14040000    1.0028804 -4.8239266e-05   0.60362038  0.040060988            0   0.56355939    1.4917846     2.095405   0.44883804 
14045000    1.1063413 -1.2297893e-05   0.50180332   0.04656711            0   0.45523621    1.6456827     2.147486     1.727718 
14050000    1.0502767 0.00016744747   0.65125753  0.036916597            0   0.61434093    1.5622865     2.213544    7.9290843 
14055000    1.1333681 0.00015466563   0.52779397  0.032290766            0    0.4955032     1.685885    2.2136789    7.4929324 
14060000     1.182918 5.9410003e-05    0.4653026  0.014697389            0   0.45060521    1.7595906    2.2248932    4.2527546 
14065000     1.119035 -1.227767e-05   0.57300863  0.013120037            0   0.55988859    1.6645645    2.2375731    1.8184953 
14070000     1.105813 -0.00021194654   0.59234638  0.016382195            0   0.57596419    1.6448968    2.2372432   -4.9971986 
14075000      1.10321 -0.0001256974    0.6168921  0.026889297            0    0.5900028    1.6410249     2.257917   -2.0325541 
14080000    1.1513907 8.4860664e-05   0.53526989  0.021790767            0   0.51347912    1.7126936    2.2479635    5.1445409 
14085000      1.10922 0.0001336173   0.60335282  0.019728076            0   0.58362475    1.6499647    2.2533176    6.8141215 
14090000    1.1283765 -6.0232811e-05   0.61506535   0.02217792            0   0.59288743    1.6784601    2.2935254   0.23757884 
14095000    1.1830995 -3.5898423e-05   0.51830095  0.015293165            0   0.50300778    1.7598605    2.2781615    1.0528286 
14100000     1.176635 9.7005525e-05   0.49733373 0.0092743059            0   0.48805943    1.7502446    2.2475783    5.5587002 
14105000    1.1132597 7.0842796e-05   0.60448566  0.018387249            0   0.58609841    1.6559738    2.2604594    4.6785602 
14110000    1.1195609 0.00011195903   0.57528996  0.014903565            0    0.5603864    1.6653469    2.2406368    6.0621716 
14115000    1.1233306 6.9225817e-05   0.57041739   0.01648436            0   0.55393303    1.6709542    2.2413716    4.6042795 
14120000    1.1325255 -2.1569852e-05    0.5696579  0.027652048            0   0.54200585    1.6846317    2.2542896    1.5180386 
14125000    1.1475622 -8.622701e-05   0.55728843  0.017217397            0   0.54007103    1.7069987    2.2642872   -0.6789281 
14130000    1.0931125 -0.00013153296   0.63699887  0.042262141            0   0.59473673    1.6260048    2.2630037   -2.2266548 
14135000    1.1526167 -8.4398749e-05   0.53164087  0.025760237            0   0.50588064    1.7145173    2.2461582  -0.63465242 
14140000    1.1408274 -2.1563364e-05   0.53020554  0.011270642            0    0.5189349    1.6969808    2.2271863    1.4911568 
14145000    1.1188435 -0.00015268395     0.574654   0.01297948            0   0.56167452    1.6642797    2.2389337   -2.9726785 
14150000    1.1525939 -0.00021550739   0.52413979  0.012439648            0   0.51170015    1.7144834    2.2386232   -5.1173624 
14155000    1.1646501 8.8657407e-05   0.50106169  0.018512041            0   0.48254965     1.732417    2.2334787    5.2596515 
14160000    1.1438995 0.00011762051   0.53680845  0.035066588            0   0.50174186    1.7015506     2.238359    6.2531393 
14165000    1.0731744 -4.3959802e-05   0.64944404  0.024062923            0   0.62538112    1.5963469    2.2457909   0.74529635 
14170000    1.0635692 3.4477863e-06   0.65421846  0.040623816            0   0.61359464    1.5820592    2.2362776    2.3539621 
14175000    1.0685028 -2.5931456e-05   0.64014971  0.034982924            0   0.60516679    1.5893979    2.2295476    1.3444205 
14180000    1.0823957 -1.0054772e-05   0.67639706  0.023719509            0   0.65267756    1.6100636    2.2864606    1.9432577 
14185000    1.1152237 -8.0652965e-05   0.62949643  0.031013344            0   0.59848309    1.6588953    2.2883917  -0.46456282 
14190000    1.1699084 -0.0001251286   0.56039461  0.026542022            0   0.53385259    1.7402388    2.3006334   -1.9704229 
14195000    1.1776012 -1.4848654e-05   0.54924545  0.034857532            0   0.51438792    1.7516819    2.3009273    1.7940932 
14200000    1.1410198 -6.8728342e-05   0.61233839  0.024969037            0   0.58736935    1.6972669    2.3096053 -0.036322073 
14205000    1.1969042 -2.2803978e-05   0.52171961  0.027468331            0   0.49425128     1.780395    2.3021146    1.5237388 
14210000    1.1986097 1.8336806e-06   0.53520258  0.027879074            0   0.50732351     1.782932    2.3181346    2.3807242 
14215000    1.1699731 2.3727753e-05   0.59141896 0.0057164346            0   0.58570252    1.7403349    2.3317539    3.1416612 
14220000    1.2079821 -1.78707e-05   0.54574034  0.017844198            0   0.52789614    1.7968734    2.3426137    1.7326271 
14225000    1.1546243 -0.000154102   0.59781325  0.024255509            0   0.57355775    1.7175036    2.3153169   -2.9446981 
14230000    1.1716488 -0.00014483321   0.56392468 0.0099699699            0   0.55395471    1.7428276    2.3067523   -2.6368879 
14235000    1.1137488 8.3658567e-06   0.60977414  0.015984452            0   0.59378969    1.6567014    2.2664755    2.5520301 
14240000    1.1632995 4.7277805e-06   0.52708544  0.019027482            0   0.50805796     1.730408    2.2574934    2.4188683 
14245000    1.1712366 -3.9623266e-05   0.51219434   0.01335687            0   0.49883747    1.7422145    2.2544088   0.90193465 
14250000    1.1240838 2.3252437e-05    0.6035157  0.015042966            0   0.58847274    1.6720746    2.2755903    3.0692735 
14255000    1.1024969 5.1398778e-05   0.61849391  0.019614782            0   0.59887913    1.6399641     2.258458    4.0128696 
14260000    1.1482787 -4.4824853e-05   0.54892029   0.02060958            0   0.52831071    1.7080646    2.2569849   0.72696323 
14265000    1.1134279 6.7472039e-05   0.60061911  0.062802043            0   0.53781706    1.6562241    2.2568432    4.5598888 
14270000    1.1018369 -1.2495755e-05   0.62680185  0.057340521            0   0.56946133    1.6389824    2.2657842    1.8392624 
14275000    1.1117475 -9.8339531e-05   0.62303433  0.013661249            0   0.60937308    1.6537245    2.2767588   -1.0798972 
14280000    1.1543022 0.00015157913    0.5517799  0.014252611            0   0.53752729    1.7170245    2.2688044    7.4427055 
14285000    1.1513071 4.4172315e-05   0.54811217  0.020022824            0   0.52808934    1.7125693    2.2606815    3.7684299 
14290000    1.1734107 -1.4270648e-05   0.52394569  0.013856473            0   0.51008922    1.7454484    2.2693941    1.7822893 
14295000    1.1562187 8.4347913e-05   0.56425183  0.026309422            0    0.5379424    1.7198753    2.2841271    5.1632026 
14300000    1.1163468 9.3844887e-05   0.64326364  0.037218749            0   0.60604489    1.6605658    2.3038294    5.5070682 
14305000    1.0914438 0.00018633371   0.69984459  0.090173149            0   0.60967144    1.6235227    2.3233673    8.6835581 
14310000    1.0741899 -6.6933163e-05   0.67940192  0.036081476            0   0.64332044    1.5978574    2.2772593 -0.0073926394 
14315000    1.1622196 -0.00013166011     0.527932  0.017450419            0   0.51048158    1.7288017    2.2567337   -2.2372647 
14320000    1.1185688 6.9735483e-05   0.62094334  0.016140272            0   0.60480307    1.6638711    2.2848144    4.6651189 
14325000    1.2160077 7.2347192e-06   0.51299559  0.014747692            0    0.4982479    1.8088115     2.321807    2.5687521 
14330000     1.152637 -7.2895877e-05   0.62228188  0.044596958            0   0.57768492    1.7145476    2.3368295  -0.15134982 
14335000    1.0883062 -1.2465414e-05   0.70973057  0.057845964            0   0.65188461    1.6188554     2.328586    1.9030999 
14340000    1.1584911 -2.9870957e-05   0.59675634  0.029676152            0   0.56708019    1.7232555    2.3200118    1.3004165 
14345000    1.1212128 -4.3730057e-05   0.65634506  0.025313054            0   0.63103201     1.667804    2.3241491   0.83149648 
14350000     1.152588 7.4011954e-05   0.60581632 0.0088401606            0   0.59697616    1.7144746     2.320291    4.8465657 
14355000     1.203357 9.8177942e-05   0.52749631  0.004710778            0   0.52278553    1.7899936    2.3174899    5.6686303 
14360000     1.231375 8.549294e-05   0.47276443 0.0094588298            0    0.4633056    1.8316703    2.3044347    5.2225937 
14365000    1.1274205 7.8482681e-05   0.62500639  0.019216043            0   0.60579035     1.677038    2.3020444    4.9809199 
14370000     1.151807 -1.4589944e-06   0.59763457  0.053507825            0   0.54412674    1.7133128    2.3109474    2.2611471 
14375000    1.1507274 1.1518633e-05   0.57760559  0.048924016            0   0.52868157     1.711707    2.2893126     2.682482 
14380000    1.1072728 0.0001782231   0.64628844  0.043429037            0    0.6028594    1.6470682    2.2933567    8.3767051 
14385000    1.1713235 8.7351518e-05   0.55584757  0.030907178            0   0.52494039    1.7423438    2.2981913    5.2797898 
14390000    1.1617976 -6.649976e-05   0.59446148  0.017375729            0   0.57708575     1.728174    2.3226354   0.05277697 
14395000    1.1933932 6.3607015e-05   0.56782187   0.02010311            0   0.54771877    1.7751724    2.3429942    4.5141137 
14400000     1.176024 0.00010587136   0.57959505  0.012458852            0    0.5671362    1.7493357    2.3289307    5.9426731 
14405000    1.1199009 -9.8049962e-05   0.62958522 0.0096393479            0   0.61994587    1.6658526    2.2954378   -1.0513343 
14410000    1.1642345 -6.3130303e-05   0.56889455 0.0055155023            0   0.56337905    1.7317988    2.3006933   0.14584564 
14415000    1.1619563 0.00015447445   0.55490012  0.010649036            0   0.54425108      1.72841    2.2833101     7.556038 
14420000    1.1500514 2.4237766e-05   0.55407308 0.0094580911            0   0.54461499    1.7107014    2.2647745    3.0920903 
14425000    1.1506344 -0.00020352642   0.55723422   0.01725221            0   0.53998201    1.7115687    2.2688029   -4.6782322 
14430000    1.1863192 -1.3125618e-05   0.54475875   0.01531809            0   0.52944066    1.7646499    2.3094086    1.8613875 
14435000    1.1508034 5.2126848e-05   0.58442357  0.019413736            0   0.56500984    1.7118201    2.2962437    4.0755067 
14440000    1.1413558 1.0431474e-05   0.60311028  0.018346691            0   0.58476359    1.6977668    2.3008771    2.6569381 
14445000    1.1939253 9.0925067e-05   0.51564267  0.018492512            0   0.49715015    1.7759639    2.2916065    5.3951822 
14450000    1.1570451 -2.9801059e-05    0.5450501  0.019509478            0   0.52554063    1.7211045    2.2661546    1.2489451 
14455000    1.1364193 -3.8363125e-05    0.5679489  0.023438743            0   0.54451016    1.6904237    2.2583726   0.94891132 
14460000    1.1487972 -5.6770505e-05   0.55368861  0.023387794            0   0.53030082    1.7088358    2.2625244   0.32475783 
14465000    1.1158093 -5.8203326e-05   0.59138615  0.020833133            0   0.57055302    1.6597663    2.2511525   0.26447896 
14470000    1.1529978 -0.0001035909   0.52116259  0.025023862            0   0.49613873    1.7150843    2.2362469   -1.2996558 
14475000    1.1150848 0.00010835815   0.55457745  0.029157768            0   0.52541968    1.6586886     2.213266    5.9118908 
14480000    1.1737051 0.00016096759    0.4726684  0.013450627            0   0.45921778    1.7458864    2.2185548    7.7129152 
14485000     1.117344 2.1045092e-05   0.57933268  0.014806052            0   0.56452663    1.6620491    2.2413818     2.959721 
14490000    1.0618545 3.2292325e-05   0.65842452  0.024815985            0   0.63360853    1.5795086    2.2379331    3.3401778 
14495000    1.1109646 5.273396e-05   0.55450129  0.012296134            0   0.54220516    1.6525598    2.2070611    4.0070469 
14500000    1.0821425 -8.169859e-05   0.57320041   0.01861916            0   0.55458125     1.609687    2.1828874  -0.60575779 
14505000    1.1170715 3.663712e-05   0.54111882 0.0079426239            0    0.5331762    1.6616439    2.2027627    3.4533097 
14510000     1.190763 2.8245226e-05   0.41467087 0.0098294808            0   0.40484139      1.77126    2.1859308    3.1500345 
14515000    1.0882185 1.028827e-05   0.55935554  0.022828025            0   0.53652752    1.6187251    2.1780806    2.5292536 
14520000    1.0583331 -1.2057309e-05   0.60890803  0.037279999            0   0.57162803    1.5742705    2.1831785    1.7716224 
14525000    1.0992766 -0.00017666939   0.57220766  0.053314429            0   0.51889324     1.635174    2.2073816   -3.8229335 
14530000    1.1256328 -4.8934253e-05   0.49975045  0.020839541            0   0.47891091    1.6743787    2.1741292   0.50384001 
14535000    1.0810917 -9.8102999e-05   0.58048773  0.015144827            0    0.5653429    1.6081239    2.1886117   -1.1599707 
14540000    1.1081146 -0.00017040745   0.53358044   0.02494038            0   0.50864006    1.6483204    2.1819008   -3.6346734 
14545000    1.0924542 -5.0639109e-05   0.54066108  0.034218374            0    0.5064427    1.6250256    2.1656866   0.43720505 
14550000    1.0876761 7.8731468e-05   0.58191865  0.039478975            0   0.54243967    1.6179182    2.1998369    4.8872043 
14555000    1.0951496 7.0458349e-05   0.55925057  0.020128642            0   0.53912193     1.629035    2.1882855    4.5932639 
14560000    1.0909866 2.2792401e-05   0.57953067  0.026427064            0    0.5531036    1.6228426    2.2023733    2.9803539 
14565000    1.0940494 0.00013152834   0.57657709  0.036582632            0   0.53999446    1.6273985    2.2039756    6.6934763 
14570000    1.1208785 0.00011632355   0.56223267  0.030477405            0   0.53175526    1.6673068    2.2295394    6.2000499 
14575000    1.1440214 0.00012360637   0.53086886    0.0268689            0   0.50399996    1.7017319    2.2326007    6.4516982 
14580000     1.100039 3.2960363e-05   0.59913234  0.024814966            0   0.57431737     1.636308    2.2354403    3.3604874 
14585000    1.0679603 2.1358483e-05   0.65809474  0.069515888            0   0.58857885     1.588591    2.2466857     2.975722 
14590000    1.0783873 0.00018365146   0.64623718   0.10428239            0    0.5419548    1.6041012    2.2503383    8.5189748 
14595000    1.1255917 0.00016851993   0.57951305  0.014513181            0   0.56499987    1.6743176    2.2538307    8.0059775 
14600000    1.1083679 5.3975671e-05    0.6044419  0.050201378            0   0.55424052    1.6486973    2.2531392    4.0955088 
14605000    1.0982398 3.0468007e-05   0.60524526  0.032265716            0   0.57297954    1.6336317    2.2388769    3.2788516 
14610000    1.1418307 -6.2180442e-06   0.54407394  0.011467376            0   0.53260657    1.6984732    2.2425472    2.0303046 
14615000     1.091465 -0.00010497099   0.58923513 0.0072077388            0   0.58202739    1.6235543    2.2127894   -1.3702203 
14620000    1.1026482 -2.2855562e-05   0.58330648  0.032759371            0   0.55054711    1.6401892    2.2234956    1.4433591 
14625000    1.0729806 4.3738168e-05    0.6110574  0.045941666            0   0.56511573    1.5960586     2.207116    3.7000455 
14630000    1.0984865 1.7672776e-05   0.54886707  0.035955679            0   0.51291139    1.6339987    2.1828658    2.7860965 
14635000    1.0241246 4.2829603e-05   0.66725251   0.06383655            0   0.60341596    1.5233854    2.1906379     3.652555 
14640000    1.0886485 -4.9630568e-05   0.57189769  0.022456275            0   0.54944141    1.6193647    2.1912624   0.49720566 
14645000    1.0641461 -2.5103633e-05    0.6229467  0.013435041            0   0.60951166    1.5829173     2.205864    1.3489933 
14650000    1.1508327 -4.7760682e-05   0.50439552  0.031452569            0   0.47294295    1.7118637    2.2162592   0.58602791 
14655000    1.1231829 1.1186723e-05   0.53871375  0.029978791            0   0.50873496    1.6707345    2.2094483    2.5912884 
14660000    1.0791901 0.00025063059   0.58192618  0.017992038            0   0.56393414    1.6052952    2.1872214    10.742079 
14665000    1.1081983 0.00014861244   0.54141066  0.010662078            0   0.53074858    1.6484449    2.1898556    7.2624935 
14670000    1.1444229 5.1337824e-05    0.4696829  0.014638354            0   0.45504455     1.702329    2.1720119     3.924343 
14675000    1.1059959 7.0524608e-06   0.53456742  0.018978786            0   0.51558864    1.6451689    2.1797363    2.4204603 
14680000    1.0679434 -0.00026639236   0.59277685  0.037568871            0   0.55520798    1.5885657    2.1813426   -6.9115166 
14685000    1.1049975 -0.00016159627   0.52759464  0.035303057            0   0.49229159    1.6436838    2.1712785   -3.3445408 
14690000    1.1213358 -7.3830163e-05   0.51281872  0.041417274            0   0.47140145    1.6679871    2.1808058   -0.3392638 
14695000    1.0946492 -7.4680807e-05   0.57181799  0.029087127            0   0.54273086    1.6282907    2.2001087  -0.34899616 
14700000    1.1514417 4.4240951e-05   0.47745616  0.019402858            0    0.4580533    1.7127695    2.1902256    3.7003168 
14705000     1.107072 -9.2725212e-06   0.54486605  0.030847193            0   0.51401886    1.6467697    2.1916357    1.8751337 
14710000    1.0968726 3.725736e-05   0.56986556  0.040640225            0   0.52922534     1.631598    2.2014636    3.4731815 
14715000    1.1062102 -6.9277161e-05    0.5642778  0.012724484            0   0.55155332    1.6454876    2.2097654  -0.15489501 
14720000    1.1413688 -4.3779544e-05   0.50717311 0.0076888283            0   0.49948428    1.6977861    2.2049592   0.71061741 
14725000    1.1004408 9.4157866e-05   0.55603065  0.008313202            0   0.54771744    1.6369057    2.1929364    5.4068582 
14730000    1.1004487 -2.7000898e-05   0.57024079  0.016074788            0     0.554166    1.6369175    2.2071583    1.2855276 
14735000    1.0292986 -0.00011158632    0.6491841   0.08368308            0   0.56550102    1.5310816    2.1802657   -1.6285472 
14740000    1.0830739 2.8400474e-05   0.58111402  0.031950364            0   0.54916366    1.6110724    2.1921865    3.1615893 
14745000    1.1044056 -1.4436017e-05   0.50769403  0.042191085            0   0.46550294    1.6428033    2.1504974     1.657748 
14750000    1.0441473 -2.5593065e-05    0.6192993  0.059601265            0   0.55969803    1.5531691    2.1724684    1.2988918 
14755000    1.1021963 8.7257604e-05   0.54504626  0.015754186            0   0.52929207     1.639517    2.1845633    5.1629562 
14760000    1.0737261 7.5106593e-05    0.5942626  0.016811186            0   0.57745141    1.5971676    2.1914302    4.7550685 
14765000    1.1324153 1.2211643e-05   0.54310567  0.016187087            0   0.52691859    1.6844678    2.2275734    2.6443975 
14770000    1.1468456 7.7126606e-06   0.51586757  0.024318081            0   0.49154948    1.7059328    2.2218003    2.4850592 
14775000    1.0519354 -2.550088e-06   0.65247094  0.022422876            0   0.63004807    1.5647539    2.2172248    2.1301818 
14780000    1.1239641 -0.000113297   0.53777829  0.021719683            0   0.51605861    1.6718966    2.2096749   -1.6575293 
14785000     1.161103 6.2380108e-05   0.49290937  0.058697165            0    0.4342122    1.7271407    2.2200501    4.3492911 
14790000    1.0846394 5.0740009e-05   0.59632119  0.014835023            0   0.58148617     1.613401    2.2097222    3.9416479 
14795000    1.1196355 -8.7048763e-06   0.56056571  0.018687447            0   0.54187826    1.6654579    2.2260236    1.9288971 
14800000    1.1191852 -0.00014843298   0.57787594 0.0076399596            0   0.57023598     1.664788    2.2426639   -2.8238483 
14805000    1.1353186 4.6460632e-05   0.55734744  0.016024884            0   0.54132256    1.6887864    2.2461339    3.8319901 
14810000    1.1629212 -8.1856282e-05   0.49352907  0.031150773            0    0.4623783    1.7298453    2.2233743  -0.57065344 
14815000    1.1663018 -0.00014331195   0.46191756  0.024719216            0   0.43719834    1.7348739    2.1967914   -2.6949231 
14820000    1.0608251 -4.3320279e-05   0.62234663   0.02400733            0    0.5983393    1.5779774     2.200324   0.72165851 
14825000    1.1064155 -0.00017575623   0.56921598  0.026025558            0   0.54319042     1.645793     2.215009   -3.7841369 
14830000    1.1513259 -6.1209985e-05   0.51371274  0.011246538            0    0.5024662    1.7125973      2.22631   0.13700917 
14835000    1.1240666 0.00015946473   0.56608715  0.034348513            0   0.53173864     1.672049    2.2381362    7.6811989 
14840000    1.0319399 3.004525e-05   0.68648084  0.063285383            0   0.62319546    1.5350106    2.2214915     3.247036 
14845000     1.120819 -6.4595094e-05   0.56095733  0.064614577            0   0.49634276    1.6672182    2.2281756  0.023329696 
14850000    1.1291633 2.8037194e-05   0.54762359   0.03636556            0   0.51125803    1.6796304     2.227254    3.1842569 
14855000    1.0875192 -0.00013891791   0.56957604  0.036770269            0   0.53280577    1.6176848    2.1872609   -2.5544703 
14860000    1.0592008 -8.4623654e-05   0.58868277  0.019108731            0   0.56957404    1.5755612    2.1642439  -0.72424344 
14865000    1.0752214 0.00011820938   0.55551681  0.017295936            0   0.53822088    1.5993918    2.1549086    6.1897889 
14870000    1.0826588 7.2403743e-06   0.53508861   0.02877424            0   0.50631437    1.6104549    2.1455436    2.3926817 
14875000    1.0790194 -0.000139793   0.55077517  0.055175216            0   0.49559995    1.6050414    2.1558165   -2.6157845 
14880000     1.011614 -0.00015763405   0.63933533  0.040580292            0   0.59875504    1.5047758    2.1441111   -3.2364646 
14885000    1.0903369 -8.8928428e-05   0.54308212    0.0308889            0   0.51219322    1.6218761    2.1649582  -0.87046547 
14890000     1.093845 9.0969436e-06   0.52379219  0.033923895            0    0.4898683    1.6270944    2.1508866    2.4613956 
14895000    1.0937056 3.7851146e-05   0.53694488  0.036535628            0   0.50040926    1.6268871     2.163832    3.4558178 
14900000    1.0105257 8.2035778e-05   0.67672977  0.055827675            0    0.6209021     1.503157    2.1798868    4.9800414 
14905000    1.1264191 4.0800899e-05   0.50714719  0.020194545            0   0.48695264    1.6755484    2.1826956    3.5753663 
14910000    1.1297834 -2.597867e-05   0.48497979  0.023500997            0   0.46147879    1.6805528    2.1655325     1.278794 
14915000    1.0406582 -5.5660409e-05   0.59491942  0.016182381            0   0.57873703     1.547979    2.1428984   0.24302316 
14920000    1.0887137 1.2084728e-05   0.50402407 0.0089538328            0   0.49507024    1.6194616    2.1234857    2.5359778 
14925000    1.0559848 -2.9492255e-05   0.53508651  0.011311225            0   0.52377529    1.5707775     2.105864     1.099195 
14930000    1.0578995 -0.00015543234   0.52399841  0.016546063            0   0.50745235    1.5736255    2.0976239   -3.2078001 
14935000    1.0587792 4.8014739e-05   0.51779283  0.020766472            0   0.49702635    1.5749341    2.0927269      3.73163 
14940000    1.0074364 2.2663799e-05   0.57222109  0.028603266            0   0.54361782    1.4985616    2.0707827    2.8443737 
14945000    1.0481576 -0.00011385786   0.49503654  0.014419144            0   0.48061739    1.5591344    2.0541709   -1.8321772 
14950000    1.1060318 -2.7815768e-05   0.41756907 0.0044301178            0   0.41313895    1.6452223    2.0627914    1.1133465 
14955000    1.0833542 3.7497662e-05   0.44488583 0.0034059635            0   0.44147987    1.6114894    2.0563752    3.3362954 
14960000    1.0300887 9.672367e-05   0.53486036 0.0074765909            0   0.52738377    1.5322569    2.0671173    5.3686186 
14965000    1.0037014 4.4449173e-05   0.57228864  0.025448703            0   0.54683994    1.4930059    2.0652945     3.582493 
14970000   0.93994616 2.1990736e-05   0.66445997  0.039235371            0    0.6252246    1.3981699    2.0626299     2.813247 
14975000   0.96174752 0.00010932133   0.59965643  0.035067354            0   0.56458907    1.4305994    2.0302559    5.7617572 
14980000    1.0550244 0.00012768982   0.46144779  0.025827331            0   0.43562046    1.5693488    2.0307965    6.3892757 
14985000    1.0758753 5.8094339e-05   0.44136692  0.017594741            0   0.42377218    1.6003646    2.0417315    4.0246849 
14990000    1.0125792 -4.4021647e-05   0.53697221  0.018557477            0   0.51841474    1.5062115    2.0431837   0.54057816 
14995000    1.0438194 8.4022079e-05   0.51561651  0.025376954            0   0.49023955    1.5526813    2.0682978    4.9362514 
15000000    1.0763991 -5.5279459e-05   0.49265665  0.014863054            0    0.4777936    1.6011436    2.0938002   0.20692805 
15005000     1.027742 -0.00012547114   0.55033405  0.021805099            0   0.52852895    1.5287662    2.0791002   -2.2036481 
15010000    1.0193136 -7.4612797e-06    0.5668697  0.051814185            0   0.51505552    1.5162289    2.0830986    1.8284203 
15015000    1.0538368 -5.9128221e-05   0.50317451  0.032850952            0   0.47032356    1.5675822    2.0707567  0.052513437 
15020000    1.0448566 3.8473546e-05   0.51432514  0.033831484            0   0.48049366    1.5542242    2.0685493    3.3817797 
15025000    1.0217975 0.00014124131   0.54198648  0.044691891            0   0.49729459    1.5199238    2.0619103    6.8829469 
15030000    1.0434127 -1.1445118e-06   0.50520489  0.030288083            0    0.4749168    1.5520764    2.0572813    2.0182153 
15035000   0.99943628 6.2608785e-05   0.57987588  0.036550235            0   0.54332564    1.4866615    2.0665373    4.2035839 
15040000    1.0343608 -4.3230218e-06   0.52886153  0.038939665            0   0.48992186    1.5386117    2.0674733    1.9199141 
15045000    1.0451133 -5.2967045e-05   0.52106962  0.033499365            0   0.48757026     1.554606    2.0756756   0.26773384 
15050000   0.97512722 2.4135751e-05   0.60498051    0.0172038            0   0.58777671    1.4505017    2.0554823    2.8793159 
15055000    1.0148485 8.8978242e-05   0.53109972 0.0074545088            0   0.52364521    1.5095871    2.0406868    5.0778108 
15060000    1.0737167 7.984533e-05   0.44755061  0.016854552            0   0.43069606    1.5971536    2.0447042    4.7700915 
15065000   0.97337458 -7.4786894e-05    0.6070393  0.034743053            0   0.57229625    1.4478947     2.054934    -0.497792 
15070000   0.98200184 -5.568354e-05   0.59975827  0.058830681            0   0.54092759    1.4607277     2.060486   0.15982117 
15075000    1.0021304 -1.8946217e-05   0.53665008  0.040507031            0   0.49614305    1.4906689     2.027319    1.3806215 
15080000   0.99909139 -6.8554668e-05    0.5451053  0.018745083            0   0.52636022    1.4861484    2.0312537  -0.30874559 
15085000     1.030587 -0.00013923751   0.50400815  0.010708132            0   0.49330002    1.5329981    2.0370062   -2.7156341 
15090000    0.9469695 -5.7233922e-05   0.63515545  0.039986724            0   0.59516872    1.4086171    2.0437726  0.090188047 
15095000    1.0149605 6.3732715e-05   0.52042676  0.010290548            0   0.51013621    1.5097538    2.0301805    4.2055905 
15100000    1.0293468 9.1501732e-06   0.52890112 0.0055133002            0   0.52338782    1.5311533    2.0600545    2.3723804 
15105000    1.0427669 -2.6682653e-05   0.52451815 0.0068897573            0    0.5176284    1.5511158     2.075634    1.1648661 
15110000    1.1016311 -1.4675321e-07   0.45607753  0.045397256            0   0.41068027    1.6386762    2.0947538    2.0897446 
15115000     1.025841 8.992716e-06   0.55021698   0.04730111            0   0.50291587    1.5259385    2.0761555    2.3831069 
15120000   0.96325862 0.00011827432   0.65130781  0.032956611            0    0.6183512    1.4328472     2.084155    6.1212517 
15125000     1.026849 -1.7261442e-05   0.51534121   0.01302675            0   0.50231446    1.5274379    2.0427791    1.4535886 
15130000    1.0452203 -0.00016471893   0.49266274  0.009236208            0   0.48342653    1.5547652     2.047428   -3.5749783 
15135000   0.99575513 -5.1550001e-05   0.54618236  0.024020621            0   0.52216174    1.4811858    2.0273681   0.26779475 
15140000   0.99160324 1.378817e-05    0.5586011  0.054854318            0   0.50374679    1.4750098    2.0336109    2.5042471 
15145000    0.9850709 -3.0892463e-06   0.57827379  0.036135948            0   0.54213784     1.465293    2.0435668    1.9381205 
15150000   0.99204397 -1.5985051e-05   0.55662868  0.031150218            0   0.52547846    1.4756654    2.0322941     1.486671 
15155000    1.0054464 3.661781e-06   0.51447519  0.081846507            0   0.43262868    1.4956016    2.0100767    2.1350655 
15160000   0.99324813 9.3751167e-05   0.54911579  0.049031703            0   0.50008408    1.4774566    2.0265724    5.2266122 
15165000    1.0103737 5.3540495e-05   0.54564712  0.029067797            0   0.51657932    1.5029309     2.048578    3.8760936 
15170000   0.99749124 -4.3256066e-05   0.53212719  0.014935279            0   0.51719191    1.4837682    2.0158954   0.53942169 
15175000    1.0080396 7.3468098e-05    0.4947348 0.0033445891            0   0.49139021    1.4994589    1.9941937    4.5019048 
15180000   0.96695143 0.00010235779   0.57325281 0.00012793714            0   0.57312487    1.4383403    2.0115931    5.5054055 
15185000    1.0190258 -2.1955502e-05   0.48279191 5.4404479e-05            0   0.48273751    1.5158008    1.9985927    1.2491783 
15190000    1.0193323 6.9057449e-05   0.48477895 0.0075130746            0   0.47726588    1.5162568    2.0010357    4.3581967 
15195000    1.0049316 1.3631673e-05   0.48812126  0.021875976            0   0.46624528    1.4948357     1.982957    2.4482514 
15200000    1.0186088 -0.00010372773   0.46110375  0.017425687            0   0.44367807    1.5151806    1.9762843    -1.564289 
15205000    0.9354158 5.3108221e-05   0.56030248 0.0092138445            0   0.55108864     1.391431    1.9517335    3.7644941 
15210000    1.0040523 -0.00012619215   0.47637075  0.019796539            0   0.45657422    1.4935278    1.9698986   -2.3374603 
15215000   0.97595776 -0.00019571326   0.51071688  0.013624762            0   0.49709212    1.4517372     1.962454   -4.7178919 
15220000    1.0133014 5.2363211e-05   0.45877942 0.0060055796            0   0.45277384    1.5072858    1.9660653    3.7533962 
15225000   0.98087184 -1.5572169e-05   0.51452734 0.0041955568            0   0.51033179    1.4590469    1.9735742    1.4420442 
15230000   0.96719072 -0.00013493402   0.54289405  0.020131283            0   0.52276277    1.4386962    1.9815902   -2.6241575 
15235000   0.96944823 -7.7646442e-05   0.54172986  0.027641707            0   0.51408815    1.4420542    1.9837841  -0.66654779 
15240000     1.001575  2.85372e-05    0.5092651  0.016891902            0   0.49237319    1.4898428    1.9991079    2.9731777 
15245000    1.0036735 4.7692527e-05   0.51459168  0.025494704            0   0.48909698    1.4929644     2.007556     3.635461 
15250000    1.0345557 -4.7717106e-05   0.50179234  0.015258902            0   0.48653344    1.5389016    2.0406939   0.41195005 
15255000   0.96540976 -4.099864e-05   0.59927642  0.040682314            0   0.55859411     1.436047    2.0353234   0.63590319 
15260000   0.95465985 1.596434e-05   0.61430719  0.066899952            0   0.54740724    1.4200565    2.0343637    2.5792799 
15265000    1.0255438 0.00013996398   0.50484152   0.04249234            0   0.46234918    1.5254964    2.0303379    6.8077751 
15270000     1.023389 5.6823878e-05   0.51213103  0.022535347            0   0.48959569    1.5222912    2.0344222    3.9740105 
15275000    1.0170471 -2.308664e-05   0.52294007  0.018934928            0   0.50400514    1.5128576    2.0357977    1.2477737 
15280000   0.99040469 9.8718573e-05   0.57656023  0.035066207            0   0.54149402     1.473227    2.0497872    5.4193812 
15285000    1.0425287 7.9775603e-05   0.51935468  0.011299843            0   0.50805483    1.5507614    2.0701161    4.7931233 
15290000     1.086824 1.4392174e-05   0.47178482  0.021809517            0    0.4499753    1.6166507    2.0884355    2.5796884 
15295000    1.0815095 -4.9512917e-05    0.4929043  0.014139007            0    0.4787653    1.6087454    2.1016497   0.41160885 
15300000    1.0570479 1.8688046e-05   0.53642371  0.019844441            0   0.51657927    1.5723587    2.1087824    2.7466677 
15305000    1.0823517 3.6311029e-05   0.48822922  0.037316492            0   0.45091273    1.6099981    2.0982273    3.3376438 
15310000    1.0853065 -1.5030705e-06   0.50384696  0.033871281            0   0.46997568    1.6143935    2.1182404    2.0669356 
15315000    1.0750355 -3.8647676e-05   0.51498471  0.022627623            0   0.49235708    1.5991154    2.1141001   0.79492607 
15320000    1.1054321 1.3358136e-05   0.46939737  0.015897321            0   0.45350005    1.6443303    2.1137276    2.5696853 
15325000    1.0984789 -9.8769831e-05    0.4819868 0.0054102835            0   0.47657652    1.6339873    2.1159741   -1.2553694 
15330000    1.0112576 -0.00011981916   0.60216024  0.030055481            0   0.57210476    1.5042457     2.106406   -1.9834213 
15335000    1.0028473 -0.00010096244    0.5993613  0.034456925            0   0.56490438    1.4917354    2.0910967   -1.3550879 
15340000    1.0537911 -9.5972228e-05   0.54279625  0.017219864            0   0.52557639    1.5675143    2.1103106   -1.1655415 
15345000    1.1479779 4.3857748e-05   0.41817865   0.01133205            0    0.4068466    1.7076172    2.1257958     3.622807 
15350000    1.1000382 5.9006273e-06   0.48453255  0.014781981            0   0.46975057    1.6363068    2.1208394    2.3222475 
15355000    1.0428835 1.4508654e-05   0.55905906  0.052260515            0   0.50679854    1.5512892    2.1103482    2.6055769 
15360000    1.1092232 3.9777545e-05   0.48579206  0.050936626            0   0.43485543    1.6499695    2.1357615    3.4935017 
15365000    1.0730572 6.8152051e-05   0.55431904  0.013735527            0   0.54058351    1.5961726    2.1504917    4.4767483 
15370000    1.1392289 0.00011992496   0.46363006  0.011920233            0   0.45170983     1.694603    2.1582331    6.2516716 
15375000    1.0720939 1.4632233e-05   0.59262484  0.017722197            0   0.57490264    1.5947397    2.1873645    2.6868114 
15380000    1.0558251 -0.00011941094   0.64129326  0.033474811            0   0.60781845    1.5705398     2.211833   -1.8640605 
15385000   0.99857629 -3.2233076e-05   0.71952355  0.082418491            0   0.63710505    1.4853822    2.2049058    1.1046834 
15390000    1.0698894 -7.4030421e-05   0.62615813  0.069800151            0   0.55635798    1.5914605    2.2176187  -0.30928636 
15395000    1.1266689 6.9535615e-06   0.54380575  0.033835903            0   0.50996985      1.67592    2.2197257     2.457074 
15400000    1.0411425 8.7011748e-05   0.67210772  0.025477081            0   0.64663064    1.5486995    2.2208073    5.1908082 
15405000    1.1035081 6.5351595e-05   0.57315165  0.021605966            0   0.55154569    1.6414683      2.21462    4.4452877 
15410000    1.0936219 -6.1490226e-05   0.58490239  0.047705411            0   0.53719698    1.6267626     2.211665   0.11279858 
15415000    1.0458628 -0.00011417416   0.63597623  0.036857506            0   0.59911872    1.5557209    2.1916971   -1.7054476 
15420000    1.0733033 9.967209e-05   0.59974658   0.04469665            0   0.55504993    1.5965386    2.1962852    5.5984259 
15425000    1.1000757 7.400328e-05   0.56141185  0.043843862            0   0.51756799    1.6363625    2.1977744     4.723753 
15430000    1.1132689 -0.00013561888   0.54191221  0.013917254            0   0.52799496    1.6559875    2.1978997   -2.4312246 
15435000    1.0933776 -6.3897661e-05   0.54860106  0.020265231            0   0.52833583    1.6263992    2.1750003 -0.006039872 
15440000    1.1229335 8.5254371e-05   0.52480682  0.026529552            0   0.49827727    1.6703635    2.1951704    5.1051862 
15445000    1.1640782 3.5032316e-05   0.45140664  0.013933055            0   0.43747359    1.7315663    2.1829729    3.3787427 
15450000    1.0870905 -8.0008428e-05   0.56207142 0.0020682254            0   0.56000319    1.6170472    2.1791186  -0.55183575 
15455000    1.0489185 -0.00010442383   0.62138784  0.010170774            0   0.61121706    1.5602663    2.1816541   -1.3826792 
15460000    1.1041941 6.6676209e-05   0.54835348  0.010708232            0   0.53764525    1.6424887    2.1908421    4.4667234 
15465000     1.090755 -9.4909279e-06   0.58193128  0.013334929            0   0.56859636    1.6224981    2.2044294    1.8804724 
15470000     1.146141 -0.00019445038   0.50826103  0.026484878            0   0.48177615    1.7048848    2.2131458   -4.4240937 
15475000    1.1279581 -8.048476e-05   0.53594526  0.017775779            0   0.51816948    1.6778377     2.213783  -0.53343017 
15480000     1.089686 -7.8160811e-05   0.60031363  0.032374954            0   0.56793868    1.6209079    2.2212215   -0.4466675 
15485000     1.081296 -5.4868678e-05   0.59754811  0.050187889            0   0.54736022    1.6084277    2.2059758   0.33312495 
15490000    1.0810814 3.5020397e-05   0.58556073  0.039348653            0   0.54621208    1.6081086    2.1936693    3.3890322 
15495000    1.0992168 0.00012380967   0.53529569  0.026696658            0   0.50859903     1.635085    2.1703806    6.3964175 
15500000    1.0955508 0.00013822564   0.51775806  0.053880407            0   0.46387765    1.6296318    2.1473898    6.8654916 
15505000    1.0100604 -9.1473148e-05   0.65292822  0.090888814            0   0.56203941    1.5024649    2.1553931  -0.96689034 
15510000    1.0984038 -5.9105168e-05     0.513517   0.02002262            0   0.49349438    1.6338756    2.1473926   0.12993619 
15515000     1.077118 8.4910932e-05   0.55865228 0.0021389546            0   0.55651333     1.602213    2.1608652    5.0591584 
15520000    1.0712948 9.7869123e-05   0.56126922  0.023120226            0   0.53814899     1.593551    2.1548203    5.4954197 
15525000    1.0437549 -4.2393731e-05   0.59228503  0.044196318            0   0.54808871    1.5525854    2.1448705   0.69783114 
15530000    1.0408111 -0.00017495237   0.60885094   0.04082139            0   0.56802955    1.5482065    2.1570574   -3.8146501 
15535000    1.1110692 -2.3164659e-05   0.50294587  0.024382019            0   0.47856385    1.6527155    2.1556613    1.3649743 
15540000    1.0556888 0.00010102552   0.58267198  0.041765878            0   0.54090611     1.570337     2.153009    5.6013466 
15545000    1.0695479 -9.9907939e-05   0.56657824  0.037177066            0   0.52940118    1.5909524    2.1575307   -1.2526603 
15550000    1.0941375 -1.2150072e-05   0.54935814  0.021220979            0   0.52813716    1.6275295    2.1768877    1.7621652 
15555000    1.0961886 9.7030611e-05   0.56442785  0.010250095            0   0.55417776    1.6305806    2.1950084    5.5069866 
15560000     1.103747 3.0459135e-05   0.54651234  0.024348285            0   0.52216405    1.6418236    2.1883359    3.2280078 
15565000    1.0797029 4.6650347e-05   0.57708588 0.0078773622            0   0.56920852    1.6060581     2.183144    3.7754758 
15570000    1.0415627 -0.00012726817   0.63897046  0.036938336            0   0.60203213    1.5493245     2.188295    -2.155792 
15575000    1.0601568 -0.0001581333   0.62510096  0.009697804            0   0.61540315    1.5769833    2.2020842   -3.1955323 
15580000    1.1339517 -3.5993036e-05   0.52151041 0.0066681849            0   0.51484223    1.6867532    2.2082636   0.97970126 
15585000    1.0144613 2.0119571e-06   0.67488627  0.026547859            0   0.64833841    1.5090112    2.1838975    2.2525723 
15590000    1.0606419 7.2020127e-05   0.61700152  0.010592886            0   0.60640864    1.5777048    2.1947063    4.6529933 
15595000    1.1298347 -2.3872017e-05   0.51239798 0.0035336796            0    0.5088643    1.6806292    2.1930272    1.3781956 
15600000    1.1408412 -9.9029429e-05   0.49873279  0.012124519            0   0.48660827    1.6970013    2.1957341   -1.1844704 
15605000    1.1204399 -2.5506713e-05   0.52764364  0.023234998            0   0.50440865    1.6666543     2.194298    1.3236688 
15610000    1.0655511 8.4750741e-05   0.58078611  0.014816188            0   0.56596992    1.5850073    2.1657934    5.0586187 
15615000    1.0363551 4.0476527e-05   0.62858478   0.01791337            0   0.61067141    1.5415782    2.1701629    3.5517617 
15620000    1.1070553 4.9333526e-05   0.52093093  0.014739984            0   0.50619094    1.6467448    2.1676757    3.8515934 
15625000    1.0819522 0.00012089024   0.55180109  0.045150518            0   0.50665057     1.609404    2.1612051     6.287592 
15630000    1.0696572 6.1554867e-05    0.5635948  0.048189177            0   0.51540562     1.591115    2.1547098    4.2557826 
15635000    1.0042429 -5.5995406e-05    0.6310256  0.052552337            0   0.57847326    1.4938113    2.1248369   0.21352701 
15640000    1.0828637 -8.6620959e-05   0.51828882  0.025791285            0   0.49249753    1.6107598    2.1290486  -0.82761348 
15645000    1.0119979 -7.0163134e-05   0.61276417 0.0091492336            0   0.60361494    1.5053469     2.118111  -0.27679059 
15650000    1.1274512 -0.00016525637   0.44749501  0.012373359            0   0.43512165    1.6770836    2.1245786    -3.516172 
15655000   0.98785083 -0.00010843961   0.64088737 0.0061725201            0   0.63471485    1.4694281    2.1103155   -1.5910898 
15660000    1.1130151 0.00012958296   0.50268303  0.011641582            0   0.49104145    1.6556099     2.158293    6.5813913 
15665000    1.0752537 0.00019193368   0.53010559  0.013426226            0   0.51667937    1.5994399    2.1295455    8.6808817 
15670000    1.0824294 5.3230707e-05   0.52736388 0.0083259768            0    0.5190379    1.6101138    2.1374777    3.9544191 
15675000    1.0273401 -9.0910936e-05     0.610576  0.017317118            0   0.59325888    1.5281684    2.1387444   -0.9643489 
15680000   0.98431185 -0.00012368859    0.6717317  0.092872527            0   0.57885917    1.4641639    2.1358956   -2.0860083 
15685000    1.1474845 -7.1866261e-06   0.43401114  0.049185522            0   0.38482562    1.7068832    2.1408943    1.8955908 
15690000    1.0667154 9.6289075e-05   0.57183238  0.026603653            0   0.54522873    1.5867392    2.1585715    5.4452386 
15695000    1.0192842 6.8005756e-05    0.6282227  0.028809963            0   0.59941274    1.5161852    2.1444079    4.4656711 
15700000   0.98500095 -1.2744238e-05   0.67278149 0.0087360298            0   0.66404546    1.4651889    2.1379704    1.7029671 
15705000    1.1082653 1.1013837e-06   0.48298228 0.0073754853            0    0.4756068    1.6485447     2.131527    2.1691209 
15710000    1.0154325 -6.7023927e-05   0.63871762  0.035690312            0   0.60302731    1.5104558    2.1491734  -0.13857662 
15715000    1.0538085 -6.4373903e-05   0.60888457  0.036717035            0   0.57216753    1.5675401    2.1764247 -0.020871226 
15720000    1.0811749 0.00016481647   0.54840408  0.019136079            0     0.529268    1.6082477    2.1566518    7.7823873 
15725000    1.1302233 0.00015731625   0.48626998  0.027202825            0   0.45906716    1.6812071    2.1674771    7.5372051 
15730000     1.013816 -3.8749009e-05   0.65548212  0.047870503            0   0.60761162    1.5080512    2.1635334   0.84090052 
15735000    1.0673489 4.2530802e-05   0.57539339 0.0086553453            0   0.56673805    1.5876814    2.1630748    3.6147929 
15740000    1.0522327 0.00011829354    0.5926759  0.018968395            0    0.5737075    1.5651961     2.157872    6.1956249 
15745000    1.0424539 5.3400037e-05   0.61516737  0.040824188            0   0.57434318    1.5506502    2.1658176    3.9885389 
15750000     1.082362 4.2044584e-05   0.53267511   0.02861358            0   0.50406153    1.6100134    2.1426885    3.5778103 
15755000    1.0690166 -4.6967251e-05   0.55175727  0.022689201            0   0.52906807    1.5901621    2.1419194   0.53877057 
15760000     1.079037 -5.1961144e-05   0.52811228  0.012630631            0   0.51548165    1.6050675    2.1331798   0.35957277 
15765000    1.0686299 9.6484709e-05   0.57002689  0.027116111            0   0.54291078    1.5895869    2.1596138    5.4529585 
15770000    1.0407344 0.00012744695   0.59588474  0.036859398            0   0.55902534    1.5480924    2.1439771    6.4941665 
15775000    1.0689679 0.00025171859    0.5346565  0.031543551            0   0.50311295    1.5900898    2.1247463    10.716741 
15780000    1.0381189  0.000137408   0.58109885  0.031154447            0    0.5499444    1.5442018    2.1253007    6.8154937 
15785000    1.0367451 9.1328357e-05   0.61205573  0.032158219            0   0.57989751    1.5421583    2.1542141    5.2715553 
15790000    1.0677901 3.5342405e-05   0.57991796  0.041352968            0   0.53856499    1.5883378    2.1682557    3.3746098 
15795000    1.0536173 2.496181e-05   0.57666429  0.050943882            0   0.52572041    1.5672557      2.14392    2.9959498 
15800000    1.0198198 8.8341119e-05   0.61002631  0.012898366            0   0.59712795    1.5169819    2.1270082    5.1423851 
15805000     1.043495  9.23077e-05   0.59224788  0.013711119            0   0.57853676    1.5521988    2.1444467    5.2952162 
15810000    1.0442293 0.0002013429   0.56374861  0.051571546            0   0.51217707    1.5532911    2.1170397    8.9895439 
15815000    1.0291439 0.00019673541   0.58844101  0.033670887            0   0.55477013    1.5308516    2.1192926    8.8345279 
15820000     1.072879 0.00016236033   0.53430728  0.041313908            0   0.49299337    1.5959076    2.1302148     7.672114 
15825000    1.0636186 4.1563493e-05   0.54111524  0.024834225            0   0.51628101    1.5821327     2.123248    3.5419485 
15830000    1.1109582 -5.0099232e-05    0.4698049  0.013306536            0   0.45649836    1.6525503    2.1223552   0.41230139 
15835000     1.018667 -8.2888786e-05   0.59162748  0.025429314            0   0.56619816    1.5152672    2.1068946  -0.72237594 
15840000    1.0489459 5.2409551e-05   0.55591209  0.025137569            0   0.53077452     1.560307    2.1162191    3.9051318 
15845000     1.006088 0.00015127448   0.59296834  0.047249812            0   0.54571853     1.496556    2.0895243    7.2530265 
15850000   0.99323596 -5.2734196e-05   0.60345595  0.046668184            0   0.55678777    1.4774385    2.0808944   0.28090056 
15855000   0.98546935 -4.5487153e-05   0.60277181  0.056737294            0   0.54603452    1.4658857    2.0686575   0.51602932 
15860000    1.0367069 -5.2785125e-05   0.53128469  0.038593282            0   0.49269141    1.5421015    2.0733862   0.27165388 
15865000    1.0534771 5.4021896e-05   0.48708756 0.0082865051            0   0.47880105    1.5670472    2.0541348    3.8980822 
15870000    1.0340616 0.00020081367   0.53295368 0.0092091918            0   0.52374449    1.5381667    2.0711203    8.9255603 
15875000    1.0101829 8.6475197e-05   0.56728579  0.020977198            0   0.54630859    1.5026471    2.0699328    5.0216196 
15880000    1.0029325 1.7525404e-06   0.58744361  0.020350727            0   0.56709288    1.4918621    2.0793057    2.1391257 
15885000    1.0744683 -0.00010788521   0.50630615 0.0063369985            0   0.49996916    1.5982716    2.1045777   -1.5779042 
15890000    1.0630696 0.00011768496   0.52609619  0.044527412            0   0.48156877     1.581316    2.1074121    6.1243922 
15895000   0.99996307 0.0001234222   0.60744077  0.021919184            0   0.58552159    1.4874451    2.0948858    6.3076968 
15900000   0.99937903 1.3070979e-05   0.61040226  0.058888602            0   0.55151366    1.4865763    2.0969786    2.5431347 
15905000    1.0272413 -0.00017622732   0.57219804  0.042789827            0   0.52940821    1.5280214    2.1002194   -3.9150065 
15910000     1.010134 -5.0452365e-05   0.58259853  0.012780235            0    0.5698183    1.5025744    2.0851729    0.3630655 
15915000    1.0569064 -3.1447941e-05   0.52917142  0.006182393            0   0.52298903    1.5721482    2.1013196    1.0278966 
15920000    1.0343421 -1.562561e-05   0.56632413 0.00072810918            0   0.56559603    1.5385839     2.104908    1.5715539 
15925000    1.0318891 -8.5659161e-05    0.5512413  0.010259294            0     0.540982     1.534935    2.0861763  -0.83765645 
15930000   0.97960733 -1.5121153e-05   0.64700554   0.07864341            0   0.56836213    1.4571659    2.1041714    1.5880361 
15935000   0.99579537 0.00011121279   0.63242948  0.061662509            0   0.57076697    1.4812456    2.1136751    5.9097382 
15940000    1.0952146 -8.0349441e-06   0.49789924  0.041505825            0   0.45639341    1.6291317    2.1270309    1.8527715 
15945000    1.0173584 -4.1388735e-05   0.63568556  0.039903987            0   0.59578157    1.5133207    2.1490062   0.73627074 
15950000     1.044216 1.1675073e-05   0.59267147  0.043017464            0   0.54965401    1.5532713    2.1459427    2.5444519 
15955000    1.0426717 2.9501656e-05   0.59772153  0.025723467            0   0.57199806    1.5509741    2.1486956    3.1556855 
15960000    1.0496843 1.1917876e-05   0.57811417  0.023562803            0   0.55455136    1.5614054    2.1395196    2.5463164 
15965000    1.0924504 -3.1788582e-05   0.52126784  0.021629037            0   0.49963881    1.6250199    2.1462877    1.0612375 
15970000    1.1133394 -6.7827602e-05   0.53008971 0.0071954308            0   0.52289428    1.6560924    2.1861821  -0.12900001 
15975000    1.0911807 2.400526e-05   0.59888029    0.0053732            0   0.59350709    1.6231313    2.2220116    3.0413911 
15980000    1.1736935 0.00015882399   0.46128504 0.0028942002            0   0.45839084    1.7458691    2.2071542    7.6283463 
15985000    1.0761276 0.00013823977   0.59527447 0.0054716899            0   0.58980278    1.6007398    2.1960143    6.9145984 
15990000    1.0382374 -4.2283407e-05   0.66838464  0.035276236            0   0.63310841    1.5443781    2.2127628   0.76948915 
15995000    1.0760592 -0.00010675211   0.61408602    0.0532846            0   0.56080142     1.600638    2.2147241   -1.4290812 
16000000    1.0553281 -1.2453379e-05   0.61999864  0.086437754            0   0.53356089    1.5698006    2.1897992    1.7647239 
16005000    1.0655797 1.0717694e-05   0.60072021  0.045276389            0   0.55544383    1.5850499    2.1857701    2.5516007 
16010000    1.1366631 -6.6483315e-05   0.51632968  0.018948231            0   0.49738145    1.6907863     2.207116 -0.062181171 
16015000    1.0618995 -0.00020697125   0.62273676  0.047267058            0    0.5754697    1.5795755    2.2023122   -4.8623065 
16020000    1.1177594 -3.8365334e-05   0.54067849  0.029335058            0   0.51134344    1.6626671    2.2033455   0.89380881 
16025000    1.0405244 0.00015904598   0.63805289  0.033199867            0   0.60485302      1.54778    2.1858329    7.6146025 
16030000    1.0734751 4.7065125e-05   0.56101584  0.032973062            0   0.52804278    1.5967942      2.15781    3.7642996 
16035000    1.0716065 -8.0308563e-05   0.55056979  0.014819672            0   0.53575012    1.5940147    2.1445845  -0.59661447 
16040000    1.0583811 5.9172985e-07   0.56358369  0.016365263            0   0.54721843    1.5743419    2.1379256    2.1581233 
16045000    1.0931579 5.145737e-05   0.51831273  0.016149338            0   0.50216339    1.6260724    2.1443851    3.9007967 
16050000    1.0765676 3.0413669e-05   0.56029758  0.007371135            0   0.55292645    1.6013943    2.1616918    3.1998117 
16055000    1.0717208 -6.4275198e-05    0.5531525 0.0066942874            0   0.54645821    1.5941847    2.1473372 -0.046589579 
16060000    1.0756586 -0.00010829244   0.54520053 0.0095349645            0   0.53566557    1.6000421    2.1452427   -1.5511394 
16065000    1.0287294 -9.7913577e-05   0.58760164  0.024532086            0   0.56306956    1.5302349    2.1178366   -1.2242802 
16070000     1.033116 -4.3522349e-05   0.58958831  0.062158059            0   0.52743025      1.53676    2.1263483   0.64078546 
16075000    1.0439738 4.6725393e-05   0.59392132  0.070352333            0   0.52356898     1.552911    2.1468323    3.7417258 
16080000    1.0919842 5.9910236e-05   0.52793209  0.021422635            0   0.50650946    1.6243266    2.1522587    4.1971947 
16085000    1.0175959 4.4006177e-05   0.64455446  0.032121974            0   0.61243249    1.5136738    2.1582283    3.6603058 
16090000    1.0599772 2.1665834e-05   0.57372312  0.053208532            0   0.52051459    1.5767161    2.1504392    2.8899664 
16095000    1.0976223 -6.2281238e-05   0.50507241  0.051704663            0   0.45336774    1.6327132    2.1377856    0.0119193 
16100000    1.0760058 -4.4420291e-05   0.54202036  0.021981848            0   0.52003851    1.6005587     2.142579   0.62636641 
16105000    1.0926693 -0.00010920373   0.53810187  0.028401441            0   0.50970043    1.6253457    2.1634475   -1.5640397 
16110000    1.0429442 -0.00011866215   0.61549428  0.019393857            0   0.59610042    1.5513795    2.1668737   -1.8834609 
16115000    1.1015683 1.3770711e-05   0.52043058  0.022403933            0   0.49802665    1.6385829    2.1590134    2.6290537 
16120000    1.0844702 0.00019212959   0.53446676  0.056015129            0   0.47845163    1.6131494    2.1476161    8.7056394 
16125000    1.0141812 0.00017780092   0.61986096  0.022973316            0   0.59688764    1.5085945    2.1284554    8.1973934 
16130000    1.0284793 1.145887e-05   0.59636863  0.027928406            0   0.56844023    1.5298629    2.1262316     2.517361 
16135000     1.050131 3.9686932e-05    0.5462962  0.032348482            0   0.51394772    1.5620698     2.108366    3.4630133 
16140000    1.0859632 -6.0053503e-07    0.4983661  0.028733718            0   0.46963238    1.6153703    2.1137364    2.0932382 
16145000    1.0661488 -0.00010344464   0.54027748 0.0038075926            0   0.53646988    1.5858964    2.1261739   -1.4047366 
16150000    1.0591621 -9.5034336e-05   0.57117468  0.023703979            0    0.5474707    1.5755036    2.1466782   -1.0971604 
16155000    1.0091232 -2.1588911e-05   0.61888987  0.037217684            0   0.58167219    1.5010707    2.1199606    1.3830591 
16160000    1.0669696 -1.4262093e-06   0.51381244  0.014153672            0   0.49965876    1.5871172    2.1009297    2.0522484 
16165000    1.0618429 -4.3745601e-05   0.51076278  0.006892065            0   0.50387072    1.5794914    2.0902542     0.597071 
16170000    1.0215669 -0.00011170011   0.56485522 0.0096523656            0   0.55520285    1.5195808     2.084436    -1.728261 
16175000    1.0182582 -3.5370931e-05   0.58645471  0.038544136            0   0.54791058    1.5146591    2.1011138   0.89378603 
16180000    1.0051054 0.00015312982   0.62566073  0.020892793            0   0.60476794    1.4950943     2.120755    7.3475862 
16185000    1.0935432 0.00012664777   0.48269359  0.020692498            0   0.46200109    1.6266455    2.1093391    6.4322497 
16190000    1.0258901 2.0771627e-06   0.57765531  0.030053136            0   0.54760218    1.5260115    2.1036668    2.1745673 
16195000   0.98936457 -5.1645827e-05   0.66743315  0.025291474            0   0.64214168    1.4716798     2.139113   0.37626872 
16200000    1.1269946 6.3822622e-05   0.46276289 0.0065355914            0   0.45622729    1.6764044    2.1391673    4.3176462 
16205000    1.0854776 0.00013444408    0.5307706  0.010789051            0   0.51998155     1.614648    2.1454186    6.7344431 
16210000    1.0928042 3.204252e-07   0.48861679  0.019992885            0   0.46862391    1.6255462     2.114163    2.1251002 
16215000    1.0317722 1.113854e-05   0.57818976  0.017579307            0   0.56061046    1.5347611    2.1129509    2.4931464 
16220000    1.0290851 0.00010707098     0.569162  0.015882401            0    0.5532796    1.5307641    2.0999261    5.7546157 
16225000   0.98696355 -0.00014870188   0.60901648  0.010713099            0   0.59830339    1.4681083    2.0771248   -2.9985659 
16230000   0.99946595 5.0407287e-05   0.57175072   0.02336734            0   0.54838338    1.4867056    2.0584563    3.7790251 
16235000    1.0024735 2.8690024e-05   0.58317344   0.02880879            0   0.55436465    1.4911794    2.0743528     3.053639 
16240000   0.96646708 -0.00017086301   0.62273694  0.031422142            0   0.59131479    1.4376198    2.0603567   -3.7717672 
16245000   0.98646032 1.0395739e-05    0.5938425  0.061372851            0   0.53246964    1.4673597    2.0612022    2.4160434 
16250000   0.95856019 9.8364467e-05    0.6471132  0.047898216            0   0.59921498    1.4258583    2.0729715    5.4304786 
16255000    1.0181598 -3.046184e-05   0.55947863 0.0064997009            0   0.55297893    1.5145127    2.0739913    1.0342272 
16260000   0.97184932 -9.1132692e-05   0.59201881 0.0040909294            0   0.58792788    1.4456259    2.0376447   -1.0730179 
16265000   0.97083428 6.8355936e-06   0.59078143 0.0095784748            0   0.58120296     1.444116    2.0348974     2.268219 
16270000    0.9997987 -0.0001136838   0.55784018  0.027129661            0   0.53071052    1.4872006    2.0450407   -1.8353662 
16275000   0.99298791 -7.7176527e-05    0.5533483  0.011810434            0   0.54153786    1.4770695    2.0304178   -0.6038743 
16280000    1.0059212 0.00010744648   0.53726086  0.029927832            0   0.50733302    1.4963078    2.0335687    5.7010751 
16285000   0.96982062 2.682054e-05    0.5882698  0.077217453            0   0.51105235    1.4426082     2.030878    2.9463524 
16290000    1.0152565 -6.2677179e-05   0.52078944  0.040646096            0   0.48014334    1.5101941    2.0309835  -0.10839753 
16295000    1.0446974 8.5598834e-05   0.50305528  0.012519701            0   0.49053558    1.5539874    2.0570427    4.9788162 
16300000    1.0281117 8.9856814e-05   0.53850702  0.020797894            0   0.51770913    1.5293161    2.0678232    5.1349358 
16305000    1.0353623 -5.1683685e-05   0.52120364 0.0085965202            0   0.51260712    1.5401014     2.061305   0.29716856 
16310000     1.029254 -4.342648e-05   0.53214245  0.017731092            0   0.51441136    1.5310153    2.0631578   0.58086729 
16315000   0.99524516 5.0181187e-05    0.5816887    0.0377038            0    0.5439849    1.4804272    2.0621159    3.7749671 
16320000    1.0269787 7.438564e-05   0.51250878  0.039534436            0   0.47297434    1.5276309    2.0401396    4.5791695 
16325000   0.89836457 -2.6737004e-05   0.68846269  0.016787043            0   0.67167565    1.3363173      2.02478    1.1121569 
16330000   0.93504702 -4.5231502e-05   0.60178516  0.032752389            0   0.56903277    1.3908824    1.9926676   0.44876569 
16335000   0.99520181 -0.00014920684   0.50471418  0.038657736            0   0.46605644    1.4803627    1.9850769   -3.1078499 
16340000    1.0072771 -2.9896805e-05    0.4992073  0.017327061            0   0.48188024    1.4983246    1.9975319   0.97705432 
16345000   0.98785795 0.00013531956    0.5392784  0.012536913            0   0.52674149    1.4694387    2.0087171    6.6276248 
16350000   0.96083678 -7.9891193e-06   0.60283402  0.016993546            0   0.58584048    1.4292447    2.0320787    1.7593835 
16355000    1.0191939 -8.5287391e-05   0.50547278   0.01350408            0    0.4919687    1.5160509    2.0215237  -0.88961926 
16360000   0.96774629 -4.8599496e-05    0.5814575  0.018330169            0   0.56312733    1.4395226    2.0209801   0.36211731 
16365000   0.99993358 -3.5371232e-05   0.53007594  0.020330786            0   0.50974515    1.4874012    2.0174771    0.8101391 
16370000    1.0083309 -6.6783627e-06   0.51654145   0.03015494            0   0.48638651    1.4998923    2.0164337    1.7884789 
16375000   0.96633554 4.7035182e-05   0.56984694  0.055779451            0   0.51406749    1.4374241    2.0072711    3.6127386 
16380000   0.97272518 7.1281054e-05   0.55309998  0.019884992            0   0.53321499    1.4469287    2.0000287    4.4330887 
16385000   0.99257803 5.0795172e-05   0.54835785  0.011124493            0   0.53723336    1.4764598    2.0248177    3.7586262 
16390000     1.000412 2.8125799e-05   0.53523016  0.019762436            0   0.51546772    1.4881128     2.023343    2.9833703 
16395000   0.93955059 -9.7076139e-05   0.63537312  0.021446643            0   0.61392647    1.3975815    2.0329546   -1.2805776 
16400000    1.0093982 -7.4513954e-05   0.52408972  0.017236375            0   0.50685334    1.5014798    2.0255696  -0.51784008 
16405000    1.0475798 0.00020924021   0.44522071  0.008201081            0   0.43701963     1.558275    2.0034957    9.1455617 
16410000    0.9716301 0.00019911692    0.5640312 0.0085138946            0   0.55551731    1.4452998     2.009331    8.8058553 
16415000    1.0519317 6.4903786e-05   0.43985025  0.010270209            0   0.42958004    1.5647484    2.0045987    4.2199812 
16420000   0.95981209 8.4042941e-05   0.58703585  0.022652302            0   0.56438355    1.4277205    2.0147563     4.883422 
16425000    1.0131333 -6.7076726e-05   0.52441224  0.025413598            0   0.49899864    1.5070357     2.031448  -0.25810427 
16430000    1.0524015 -8.3965633e-05   0.46258178  0.013632526            0   0.44894926    1.5654472     2.028029  -0.83799799 
16435000   0.97612912 1.9991206e-05   0.58725228  0.015437106            0   0.57181517    1.4519921    2.0392443    2.7216108 
16440000    1.0228354 0.00013151845    0.5094179  0.015313921            0   0.49410398    1.5214677    2.0308856    6.5200486 
16445000   0.94624915 0.00011195556   0.62257132  0.018948399            0   0.60362292    1.4075456    2.0301169    5.8515332 
16450000    1.0111869 -3.2460982e-05   0.56435653  0.033373103            0   0.53098342    1.5041405    2.0684971   0.96049554 
16455000    1.0812468 -1.3537167e-05   0.47437461   0.01034975            0   0.46402486    1.6083546    2.0827292    1.6206606 
16460000    1.0431498 -8.0275986e-05   0.53183967   0.02280413            0   0.50903554    1.5516854    2.0835251  -0.65656193 
16465000     1.032588 5.932659e-05   0.56926448  0.044172795            0   0.52509169    1.5359746    2.1052391    4.1302533 
16470000    1.0258012 -2.2161552e-05   0.59192698  0.014404893            0   0.57752209    1.5258793    2.1178063    1.3613586 
16475000    1.0214529 -1.9683484e-05   0.60128593  0.029483557            0   0.57180237    1.5194112    2.1206972    1.4488342 
16480000    1.0255517 -1.7181907e-05   0.59918096  0.050394819            0   0.54878614    1.5255082    2.1246892    1.5382134 
16485000    1.0455338 7.7648746e-05   0.57192237  0.026273144            0   0.54564922    1.5552315    2.1271539    4.7775644 
16490000    1.0282566 4.9612004e-05    0.6044582  0.011327863            0   0.59313034    1.5295317    2.1339899     3.827413 
16495000    1.1116843 9.2111248e-05   0.48936967 0.0043959266            0   0.48497374    1.6536304    2.1430001     5.287064 
16500000    1.0550972 -7.1486163e-05   0.59724138 0.0036116491            0   0.59362973     1.569457    2.1666984  -0.27336264 
16505000    1.0284586 -5.7597262e-05   0.63066573 0.0062233767            0   0.62444235    1.5298322    2.1604979   0.19451136 
16510000    1.0641368 7.6701288e-07   0.56307766 0.0040870201            0   0.55899064    1.5829036    2.1459812    2.1721619 
16515000    1.0245176 -2.8059293e-06   0.60954235 0.0040584968            0   0.60548385    1.5239699    2.1335122    2.0377365 
16520000    1.1241043 4.5240481e-05   0.50261777 0.0054255367            0   0.49719223    1.6721052     2.174723    3.7189314 
16525000    1.0686419 1.1828338e-05   0.59670347 0.0038687121            0   0.59283475    1.5896049    2.1863083    2.5900489 
16530000    1.1092097 -0.0003093116   0.54305921  0.001558446            0   0.54150077    1.6499494    2.1930086   -8.3648274 
16535000     1.110492 -0.00014176796   0.52295691 0.0098330769            0   0.51312383    1.6518569    2.1748138   -2.6641992 
16540000    1.0984025 0.00011572549   0.55275947  0.011878157            0   0.54088132    1.6338738    2.1866332      6.13673 
16545000    1.0426392 4.3923656e-05   0.64844873  0.015422262            0   0.63302646    1.5509258    2.1993745    3.6986353 
16550000      1.10697 1.9305282e-06   0.53050994  0.020998809            0   0.50951113    1.6466178    2.1771278    2.2430231 
16555000    1.0897973 -4.5219251e-05    0.5595542  0.027059238            0   0.53249496    1.6210734    2.1806276   0.63714384 
16560000    1.0944785 -4.228522e-06   0.58805591  0.046791797            0   0.54126411    1.6280367    2.2160926    2.0717591 
16565000    1.0511945 -5.7977355e-05   0.64289724  0.050536048            0   0.59236119    1.5636517     2.206549   0.22758861 
16570000    1.0630833 -0.00013212527    0.6314097  0.026718803            0    0.6046909    1.5813364    2.2127461   -2.2971299 
16575000     1.137159 -3.4065393e-05   0.54587635  0.025192621            0   0.52068372    1.6915241    2.2374004     1.074635 
16580000    1.0771069 0.00010199655    0.6424934  0.013895493            0   0.62859791    1.6021966      2.24469    5.7261723 
16585000    1.1222478 5.6273366e-05    0.5947798  0.020678571            0   0.57410123    1.6693436    2.2641235     4.184921 
16590000     1.096527 -0.00018321457   0.63462173  0.021979478            0   0.61264226     1.631084    2.2657057   -3.9880183 
16595000    1.1859122 -0.00011571794   0.50036318  0.015621141            0   0.48474204    1.7640444    2.2644076   -1.6854315 
16600000    1.0733752 0.00017512493   0.65055804  0.036864047            0   0.61369399    1.5966456    2.2472036    8.2248012 
16605000    1.1404881 5.8020432e-05   0.55361926  0.028777966            0   0.52484129     1.696476    2.2500953     4.230526 
16610000    1.1510839 -8.8562596e-05   0.54206847  0.057429355            0   0.48463911    1.7122373    2.2543058  -0.76863085 
16615000    1.0824607 0.00012690886    0.6372804  0.030607452            0   0.60667295    1.6101602    2.2474406    6.5792632 
16620000    1.0697286 -2.0770441e-05   0.66088725  0.010653904            0   0.65023334    1.5912213    2.2521086    1.5431442 
16625000    1.1577165 0.00010318868   0.53679107  0.009514094            0   0.52727697    1.7221032    2.2588943    5.7810678 
16630000    1.0870899 1.5249192e-05   0.63440618  0.026640059            0   0.60776612    1.6170462    2.2514524    2.7719582 
16635000    1.1035818 -0.00024694391    0.5809257  0.021734632            0   0.55919107    1.6415779    2.2225036   -6.2065152 
16640000    1.0978572 -5.9769478e-05   0.58228766    0.0114997            0   0.57078796    1.6330626    2.2153503   0.17521873 
16645000    1.0733704 3.1264626e-05   0.61334894  0.025541785            0   0.58780715    1.5966384    2.2099874    3.2771533 
16650000    1.0891261 -4.0247834e-06   0.56447218  0.041209825            0   0.52326235     1.620075    2.1845472    2.0471679 
16655000    1.0803753 7.8381463e-05   0.56640656 0.0074542163            0   0.55895234    1.6070583    2.1734648    4.8488855 
16660000    1.1130965  3.41913e-05   0.49164054  0.010631485            0   0.48100906     1.655731    2.1473716    3.3144346 
16665000     1.088482 2.3237078e-06   0.55716874  0.013628335            0    0.5435404     1.619117    2.1762858    2.2556017 
16670000    1.0523847 -1.621412e-06    0.6162515  0.032307546            0   0.58394396    1.5654222    2.1816737    2.1263295 
16675000    1.0927191 -0.00017371851   0.56033796  0.015828407            0   0.54450955    1.6254197    2.1857576   -3.7438343 
16680000    1.0597091 -0.00018877195    0.5958319   0.01851033            0   0.57732157    1.5763173    2.1721492   -4.2712665 
16685000    1.1147825 -6.1272118e-05   0.55125284  0.019092922            0   0.53215991     1.658239    2.2094918   0.11807018 
16690000    1.0847802 -3.2992824e-05   0.60202434  0.007786296            0   0.59423804    1.6136105    2.2156348    1.0894797 
16695000    1.1506771 -2.2769722e-05   0.45380282 0.0042563247            0   0.44954649    1.7116322     2.165435    1.3882286 
16700000    1.0998279 -8.0038886e-06   0.52832201 0.0013130299            0   0.52700898    1.6359941    2.1643161    1.8911167 
16705000     1.131206 -4.2944263e-06   0.49692908  0.011491095            0   0.48543798    1.6826689     2.179598    2.0330149 
16710000    1.0592921 -3.3438624e-05    0.6052184  0.022162359            0   0.58305604    1.5756971    2.1809155    1.0395438 
16715000     1.108678 -3.1542101e-05    0.5296542  0.030775834            0   0.49887836    1.6491586    2.1788128    1.1021757 
16720000    1.0912246 0.00010203365   0.54888563  0.027515772            0   0.52136986    1.6231965    2.1720822    5.6548309 
16725000    1.1679868 4.1695688e-05   0.43720716  0.027331973            0   0.40987518    1.7373804    2.1745875    3.5978003 
16730000    1.1459579 -1.6299022e-05   0.48278513 0.0088576746            0   0.47392745    1.7046124    2.1873975    1.6310576 
16735000    1.0358314 7.0580092e-05   0.65946148 0.0075255861            0    0.6519359    1.5407991    2.2002606    4.6093944 
16740000    1.1237573 -1.7701152e-05   0.53385526 0.0079435677            0   0.52591169     1.671589    2.2054442    1.6012449 
16745000    1.1007203 -9.2720031e-05   0.58312029 0.0027341126            0   0.58038618    1.6373215    2.2204418  -0.94440193 
16750000    1.0691011 2.4986815e-05   0.62699566  0.014782178            0   0.61221348    1.5902879    2.2172836    3.0701669 
16755000    1.1106062 0.00010675621   0.57567454  0.026517148            0   0.54915739    1.6520268    2.2277013    5.8716466 
16760000    1.1291657 -2.4416983e-05   0.58854774  0.014132412            0   0.57441533    1.6796339    2.2681817    1.4347487 
16765000    1.1515564 -0.00010327096   0.57230882 0.0097243397            0   0.56258448    1.7129402     2.285249    -1.239733 
16770000    1.1226904 -0.00020964129   0.61423457  0.042287952            0   0.57194662    1.6700019    2.2842365   -4.8715195 
16775000    1.1655499 -2.8501684e-06   0.52725073 0.0062820436            0   0.52096869    1.7337555    2.2610062    2.1637205 
16780000    1.0612578 0.00022525702   0.65693504  0.015504928            0   0.64143012     1.578621     2.235556    9.9243289 
16785000     1.176225 4.4695724e-05   0.49147167  0.014923234            0   0.47654844    1.7496346    2.2411063    3.7667204 
16790000    1.2007772 -1.1637556e-05   0.43994272  0.010371301            0   0.42957142    1.7861561    2.2260988    1.8288702 
16795000    1.0617451 2.8169435e-05   0.64974042  0.010757756            0   0.63898266    1.5793459    2.2290863     3.190603 
16800000    1.1096364 -2.7195635e-05   0.57495419  0.017574775            0   0.55737941    1.6505842    2.2255384    1.2972607 
16805000    1.1392997  5.30256e-05   0.52826077  0.016835712            0   0.51142505    1.6947084    2.2229691    4.0329096 
16810000    1.0992429 0.0001020414   0.57411741  0.016319758            0   0.55779766    1.6351239    2.2092413    5.6922545 
16815000    1.1118439 -0.00013918677   0.53174165  0.041041716            0   0.49069993    1.6538678    2.1856094    -2.565299 
16820000     1.084228 -0.00014982735    0.5741648  0.047289449            0   0.52687535    1.6127891    2.1869539   -2.9271531 
16825000    1.0982374 1.3113021e-05    0.5571715  0.013384716            0   0.54378678    1.6336282    2.1907997    2.6383908 
16830000    1.1307462 3.6750284e-06   0.49802724 0.0065730453            0   0.49145419    1.6819849    2.1800122    2.3054531 
16835000    1.1276234 4.490776e-05   0.54140643  0.011113085            0   0.53029334    1.6773397    2.2187462    3.7515977 
16840000    1.0690551 -2.8481446e-06   0.62356808  0.027550196            0   0.59601789    1.5902194    2.2137875    2.1165709 
16845000    1.1261714 -0.00011175006    0.5405192  0.016598657            0   0.52392054      1.67518    2.2156992   -1.5987028 
16850000    1.1040324 1.8853858e-05   0.55494431 0.0086508799            0   0.54629343    1.6422483    2.1971926    2.8407376 
16855000    1.0198732 0.00012106661   0.65084274  0.010208832            0   0.64063391    1.5170614    2.1679041     6.300311 
16860000    1.0934459 5.9764282e-05   0.53174342  0.010084332            0   0.52165909    1.6265009    2.1582443    4.1981984 
16865000    1.1014216 -6.3362356e-05   0.50745482 0.0048208813            0   0.50263394    1.6383647    2.1458195 -0.016948903 
16870000    1.0836525 -6.4584463e-05   0.54231432   0.01587072            0    0.5264436    1.6119331    2.1542474 -0.050235578 
16875000    1.0475839 -9.9232419e-05   0.59418981  0.021226662            0   0.57296315     1.558281    2.1524708   -1.2346624 
16880000    1.1558325 -6.6456134e-05   0.42721554  0.011609034            0   0.41560651    1.7193008    2.1465164    -0.121853 
16885000    1.0825161 -5.8807259e-05   0.54600662  0.004941461            0   0.54106516    1.6102427    2.1562494   0.14896161 
16890000    1.0738827 -4.2516863e-05   0.57786661  0.026939317            0   0.55092729    1.5974005    2.1752671   0.72402481 
16895000     1.086368 -2.2024894e-05   0.58467234  0.031284033            0    0.5533883    1.6159724    2.2006448    1.4488617 
16900000    1.0293338 3.4288518e-05   0.65421081  0.017225583            0   0.63698523    1.5311341    2.1853449    3.3557263 
16905000    1.1377486 7.9976297e-05   0.49458523 0.0056574855            0   0.48892774    1.6924011    2.1869863    4.9168439 
16910000    1.1014928 2.7180561e-05   0.55090728 0.00065674361            0   0.55025054    1.6384706    2.1893779     3.117141 
16915000    1.0121096 2.7716888e-05   0.65781155  0.030154006            0   0.62765755     1.505513    2.1633246    3.1093944 
16920000    1.0645161 7.6763636e-05   0.57411392  0.037082134            0   0.53703179    1.5834678    2.1575817    4.7777805 
16925000    1.1270626 7.8595237e-05   0.49925641  0.020280253            0   0.47897615    1.6765056    2.1757621    4.8584795 
16930000     1.033867 -0.00015938027   0.63386084  0.059346719            0   0.57451412    1.5378771    2.1717379   -3.2684419 
16935000     1.027884 -3.2570607e-05   0.63985911  0.019110841            0   0.62074827    1.5289774    2.1688365    1.0570931 
16940000    1.1084675 -5.3116608e-05    0.4915131  0.008399942            0   0.48311315    1.6488454    2.1403585   0.32731164 
16945000    1.0877643 3.6753297e-05   0.50790028  0.016019967            0   0.49188032    1.6180494    2.1259497    3.3804622 
16950000    1.0598839 3.3918958e-05   0.54521373  0.029817001            0   0.51539673    1.5765773     2.121791    3.2795581 
16955000     1.074989 -3.095743e-05   0.51863362  0.023135256            0   0.49549837    1.5990461    2.1176797    1.0609994 
16960000    1.0744645 -7.3447977e-05   0.53818452  0.049490653            0   0.48869387     1.598266    2.1364505  -0.37057375 
16965000    1.0376313 4.718465e-05    0.5687297  0.040104447            0   0.52862526    1.5434765    2.1122062    3.7227756 
16970000    1.0577507 -5.5431105e-05   0.52787694  0.022389903            0   0.50548703    1.5734042    2.1012811   0.20923277 
16975000    1.0568777 -4.3537837e-05   0.50958734  0.014105566            0   0.49548178    1.5721056    2.0816929   0.59560142 
16980000    1.0107676 3.603871e-05   0.54802988  0.019156931            0   0.52887295    1.5035168    2.0515467     3.281668 
16985000   0.99505969 -8.4135063e-06   0.55720665  0.014870817            0   0.54233583    1.4801513    2.0373579    1.7501769 
16990000    1.0417866 -5.7746001e-05   0.49743581 0.0058734342            0   0.49156238    1.5496576    2.0470934  0.076029928 
16995000    1.0162357 -6.5025436e-05   0.50184266 0.0081847366            0   0.49365792    1.5116506    2.0134933   -0.2060416 
17000000    1.0204821 2.7799449e-06   0.50573789  0.014721997            0   0.49101589    1.5179671     2.023705    2.1185937 
17005000   0.97394173 0.00015328588   0.59773819   0.02056404            0   0.57717415    1.4487383    2.0464765    7.2786347 
17010000    1.0049571 4.9216573e-05   0.55025227  0.022959903            0   0.52729236    1.4948738     2.045126    3.7250517 
17015000    1.0602979 -5.0488633e-07   0.49632648  0.020326162            0   0.47600032    1.5771931    2.0735196    2.0562861 
17020000    1.0579287 -0.00014153006   0.50354902    0.0248245            0   0.47872452     1.573669     2.077218   -2.7536747 
17025000   0.98165079 -0.00012704306   0.64606426   0.05024815            0   0.59581611    1.4602055    2.1062698   -2.2301334 
17030000     1.094588 5.1512129e-05     0.482925  0.016296352            0   0.46662864    1.6281997    2.1111247    3.8694054 
17035000    1.0567275 9.6611161e-05   0.54384411  0.010785547            0   0.53305856    1.5718821    2.1157262    5.4133872 
17040000    1.0177445 -1.2323619e-05   0.60009415 0.0051750356            0   0.59491911     1.513895    2.1139892     1.693343 
17045000    1.0986949 0.00014404275   0.48315803 0.0031318293            0    0.4800262    1.6343087    2.1174667    7.0341258 
17050000    1.1131451 -1.6019702e-05    0.4378288 0.0096708617            0   0.42815794    1.6558034    2.0936322    1.5468264 
17055000   0.99021614 -0.00013884982   0.62931819  0.035704426            0   0.59361377    1.4729465    2.1022647   -2.6371423 
17060000    1.0303807 2.5032277e-05   0.57304263  0.030136623            0   0.54290601    1.5326913    2.1057339     2.960169 
17065000    1.0434862 -6.6489339e-05   0.56624169  0.016971151            0   0.54927054    1.5521857    2.1184274  -0.15107538 
17070000    1.0776874 -0.00016191139   0.51379077  0.018395775            0     0.495395      1.60306    2.1168507   -3.4097249 
17075000    1.0353229 -9.1969823e-05   0.56642072 0.0095719802            0   0.55684874    1.5400428    2.1064635   -1.0327731 
17080000    1.0419451 -8.0542359e-05   0.55045049  0.012490639            0   0.53795985    1.5498934    2.1003439  -0.64883528 
17085000    1.1356631 3.3814265e-05   0.44831888 0.0066734743            0    0.4416454    1.6892989    2.1376178    3.2918113 
17090000    1.0693607 -1.5487429e-06   0.55058573 0.0054472059            0   0.54513852    1.5906741    2.1412598    2.0883961 
17095000    1.0417859 3.3509861e-05   0.62092183   0.01390661            0   0.60701522    1.5496565    2.1705784    3.3143816 
17100000    1.0846758 8.4747951e-05   0.56631372  0.009723043            0   0.55659068    1.6134552    2.1797689     5.072499 
17105000    1.1255106 0.00012079474   0.51139273 0.0064176922            0   0.50497504     1.674197    2.1855898    6.3087169 
17110000    1.0933468 9.6359231e-05   0.51846782 0.0052263089            0   0.51324151    1.6263534    2.1448212     5.433883 
17115000    1.0315676 -9.1989169e-05   0.59894526  0.005142509            0   0.59380275    1.5344568    2.1334021   -1.0064949 
17120000    1.0505624 4.930902e-05   0.56528811 0.0036643046            0    0.5616238    1.5627115    2.1279996    3.8110809 
17125000    1.0494746 0.0001213583   0.58026412 0.0033249432            0   0.57693917    1.5610935    2.1413576    6.2837208 
17130000    1.0763056 -7.4492048e-05   0.52355977 0.0067393635            0   0.51682041    1.6010045    2.1245643  -0.41809758 
17135000    1.0263424 3.9327275e-05   0.60789627  0.010051441            0   0.59784483    1.5266844    2.1345806    3.4769516 
17140000    1.0586407 0.00019132361   0.57252625  0.010957434            0   0.56156881    1.5747281    2.1472544     8.677767 
17145000    1.1276391 5.4153609e-05   0.48723464 0.0039697992            0   0.48326484    1.6773632    2.1645979    4.0130411 
17150000    1.0814658 -3.2537057e-05   0.53838082 0.0016203894            0   0.53676043    1.6086804    2.1470613    1.0364631 
17155000    1.0863034 -2.2284149e-05   0.50687354  0.004218725            0   0.50265481    1.6158763    2.1227498    1.3621176 
17160000    1.0649559 4.473773e-05   0.54617491 0.0052834005            0   0.54089151    1.5841219    2.1302968    3.6573447 
17165000    1.0617662 0.00013888521   0.54615804 0.0051961163            0   0.54096192    1.5793773    2.1255353    6.8661506 
17170000    1.0858281 2.6476183e-05   0.50366741  0.013874515            0   0.48979289    1.6151693    2.1188367     3.022557 
17175000    1.1335007 -6.6702916e-06   0.43312321  0.045683666            0   0.38743954    1.6860823    2.1192055    1.8915262 
17180000   0.97156996 5.4403861e-05   0.65736928  0.036446161            0   0.62092312    1.4452103    2.1025796    3.9595647 
17185000    1.0208863 -1.6227215e-05   0.54498697  0.033340927            0   0.51164604    1.5185683    2.0635553    1.5096663 
17190000    1.0903699 4.9334939e-08   0.46904037  0.023193779            0   0.44584659    1.6219252    2.0909656    2.0926496 
17195000    1.0678737 0.00016297717   0.49942418  0.018044252            0   0.48137993    1.5884621    2.0878863    7.6508404 
17200000      1.07602 4.4876196e-05   0.49809822  0.038840292            0   0.45925793    1.6005797     2.098678    3.6304521 
17205000    1.0770325 -0.00012372384   0.48994584  0.017295724            0   0.47265011    1.6020859    2.0920317   -2.1310752 
17210000     1.036443 -7.0955295e-05   0.54494445   0.01870327            0   0.52624118     1.541709    2.0866534   -0.3352873 
17215000    1.0240482 1.8893837e-05   0.57597325  0.065524192            0   0.51044906    1.5232717     2.099245    2.7441546 
17220000   0.98750287 0.00011173405   0.61214721  0.061318617            0    0.5508286    1.4689105    2.0810577    5.8949133 
17225000    1.0125579 2.3668666e-05   0.57556773  0.015713248            0   0.55985449    1.5061798    2.0817476     2.889638 
17230000    1.0715609 -1.050142e-05   0.50420282   0.02242091            0   0.48178191    1.5939469    2.0981497    1.7397012 
17235000    1.1020208 -8.2698978e-05   0.45830617  0.016992579            0   0.44131359    1.6392559    2.0975621  -0.72522967 
17240000    1.0120876 2.9866168e-05   0.58395867   0.01497008            0   0.56898859    1.5054804     2.089439    3.1088709 
17245000    1.0882906 4.6682919e-05   0.46715768  0.010678958            0   0.45647872    1.6188323    2.0859899    3.6794336 
17250000    1.0806735 -1.6927272e-05   0.47453089 0.0094119653            0   0.46511893    1.6075019    2.0820328    1.5042486 
17255000    1.0366998 1.9708974e-06   0.53200848 0.0099636557            0   0.52204482    1.5420909    2.0740994    2.1413727 
17260000    1.0767921 2.8402635e-05   0.46369387  0.033609735            0   0.43008413    1.6017282    2.0654221    3.0348987 
17265000    1.0283056 0.00013099182   0.52988595  0.023109235            0   0.50677671    1.5296046    2.0594905    6.5306779 
17270000    1.0328957 -0.00013263943    0.5078734  0.018696641            0   0.48917676    1.5364323    2.0443057   -2.4831201 
17275000    1.0413731 -5.100569e-05   0.51457049  0.018694875            0   0.49587561    1.5490425     2.063613    0.3226188 
17280000     1.003115 2.8287909e-05    0.5794005  0.013568448            0   0.56583205    1.4921335     2.071534    3.0370946 
17285000    1.1243798 -9.1659367e-06   0.41039445 0.0051551149            0   0.40523934     1.672515    2.0829094    1.7700454 
17290000    1.0901538 -1.3541135e-05   0.46286216  0.001772083            0   0.46109008    1.6216037    2.0844659    1.6222618 
17295000    1.0406646 -6.2928332e-05   0.54921078 0.0064280898            0   0.54278269    1.5479887    2.0971994 -0.050754286 
17300000    1.0387309 -0.00011495496   0.55955278  0.016573944            0   0.54297884    1.5451122    2.1046649   -1.8191309 
17305000    1.0856031 0.00025315834   0.50483333   0.03268385            0   0.47214948    1.6148346    2.1196679    10.760806 
17310000    1.0162227 0.00030550004   0.61087125  0.073337799            0   0.53753345    1.5116312    2.1225025    12.550237 
17315000    1.0676763 -8.9093681e-05   0.50444808  0.031958093            0   0.47248999    1.5881685    2.0926166  -0.94844772 
17320000    1.0277541 -0.00018161237   0.57910129  0.038311586            0    0.5407897    1.5287842    2.1078855     -4.09115 
17325000    1.0676152 -9.3933557e-05   0.52474741  0.024486593            0   0.50026081    1.5880777    2.1128251   -1.0934403 
17330000   0.99154733 -5.1548289e-05   0.56605702  0.012113894            0   0.55394313    1.4749267    2.0409837   0.28146874 
17335000    1.0771487 7.0045974e-05   0.42703665  0.014836319            0   0.41220033    1.6022587    2.0292954    4.4201979 
17340000    1.0048054 -5.4493618e-05   0.53749323 0.0098191935            0   0.52767403     1.494648    2.0321412    0.1720924 
17345000    0.9547244 -0.00011256444   0.61343046 0.0095464332            0   0.60388403    1.4201525     2.033583   -1.8086164 
17350000    1.0206808 -8.8916104e-05   0.51792762   0.01269594            0   0.50523168    1.5182627    2.0361903   -0.9988127 
17355000    1.0325967 2.6965209e-05    0.4977793  0.018523369            0   0.47925594    1.5359876    2.0337669    2.9541794 
17360000   0.93262306 0.00020216001     0.616043  0.035203907            0    0.5808391    1.3872768    2.0033198     8.903715 
17365000    1.0037291 7.1521644e-05   0.52202949  0.015302445            0   0.50672705     1.493047    2.0150765    4.4563486 
17370000      1.03772 1.8618107e-05   0.48499868  0.015369989            0   0.46962869    1.5436085    2.0286072    2.6641052 
17375000   0.99284875 -2.6105318e-05   0.55331683  0.016632899            0   0.53668393    1.4768625    2.0301793    1.1391178 
17380000   0.97795415 -3.2352595e-06   0.56078023  0.018813193            0   0.54196703    1.4547068     2.015487    1.9050568 
17385000    1.0601624 7.0051754e-05   0.44702262  0.023472357            0   0.42355026    1.5769915    2.0240141     4.415114 
17390000    1.0023113 -1.6429066e-05   0.54994074  0.043410724            0   0.50653002    1.4909381    2.0408788       1.4801 
17395000    1.0030394 2.9311269e-05   0.52393309  0.028260007            0   0.49567308    1.4920211    2.0159542    3.0164455 
17400000   0.96351776 0.00010593715    0.5592571  0.016850578            0   0.54240652    1.4332327    1.9924898    5.6084778 
17405000   0.96173706 0.00016056406   0.56853788  0.023900946            0   0.54463694    1.4305839    1.9991218    7.4797082 
17410000   0.97487665 -1.403358e-05   0.53969421 0.0099914869            0   0.52970273     1.450129    1.9898232    1.5108104 
17415000   0.97750961 -0.00014327121   0.55343535  0.017591163            0   0.53584419    1.4540455    2.0074809   -2.8828431 
17420000   0.96327388 -9.4211218e-06   0.54192673  0.019183988            0   0.52274274    1.4328699    1.9747966    1.6532223 
17425000   0.90031773 -7.2995091e-05   0.63659245  0.018543614            0   0.61804884    1.3392226    1.9758151  -0.51575068 
17430000    0.9548992 -5.7821902e-05   0.55964943 0.0050787898            0   0.55457064    1.4204126     1.980062 0.0064077306 
17435000    1.0461438 -3.5780664e-05   0.41731538 0.0047247867            0   0.41259059    1.5561389    1.9734543   0.75214099 
17440000   0.95896327 -0.00013970546   0.58462171 0.0092602599            0   0.57536145    1.4264579    2.0110796   -2.7575334 
17445000    1.0441297 -9.8161729e-05   0.47338655 0.0031044196            0   0.47028213    1.5531429    2.0265295   -1.3240575 
17450000    1.0313752 -9.8137875e-05   0.50264863 5.1538673e-05            0    0.5025971    1.5341706    2.0368192   -1.3129536 
17455000    1.0381426 -4.1748036e-05   0.47116887 0.0012914161            0   0.46987746     1.544237    2.0154059   0.59040629 
17460000    1.0159625 5.242347e-05   0.46686093 0.0040991042            0   0.46276182    1.5112443    1.9781052     3.767493 
17465000   0.97693175 6.2088413e-05   0.51775688 0.0059914683            0   0.51176541     1.453186    1.9709428    4.0902273 
17470000   0.99392874 0.00011952109   0.48828051 0.0059353074            0   0.48234521     1.478469    1.9667495    6.0464028 
17475000    1.0033598 3.985247e-05   0.45809177  0.014480395            0   0.44361138    1.4924978    1.9505895    3.3108872 
17480000   0.95208951 -9.8596304e-05   0.55646103   0.03050243            0   0.52595861    1.4162332    1.9726942   -1.3927263 
17485000   0.92888144 3.8026755e-06    0.5871752 0.0090805315            0   0.57809467    1.3817111    1.9688863    2.0986843 
17490000   0.99731056 -9.0111826e-05    0.5064084 0.0016192343            0   0.50478917    1.4834995    1.9899079   -1.0859091 
17495000    1.0151538 -3.8851909e-05    0.4905888 0.0059956569            0   0.48459315    1.5100413    2.0006301   0.67448495 
17500000    1.0472209 -7.1200976e-06   0.43789685  0.011262246            0   0.42663461     1.557741    1.9956379    1.7526052 
17505000    1.0197141 2.8002216e-05   0.47110977  0.013984057            0   0.45712572    1.5168247    1.9879345    2.9437434 
17510000    1.0254743 6.2206815e-05   0.46149088  0.016799845            0   0.44469104    1.5253931    1.9868839    4.1102099 
17515000   0.99997336 -2.3446247e-06   0.50797716  0.027748995            0   0.48022816    1.4874604    1.9954375    1.9154077 
17520000   0.99448396 0.00015162278   0.50403159  0.032247659            0   0.47178393    1.4792949    1.9833265    7.1587173 
17525000    1.0125567 4.8604923e-05   0.45741269  0.023062207            0   0.43435048    1.5061781    1.9635908    3.6226388 
17530000     1.028727 -4.5533948e-05   0.42286457  0.010786025            0   0.41207855    1.5302314     1.953096   0.39887057 
17535000    0.9413946 -9.3866026e-05   0.54160304  0.018055203            0   0.52354784    1.4003245    1.9419275   -1.2620329 
17540000   0.94614159 -9.6760711e-05   0.53934371  0.043371242            0   0.49597247    1.4073856    1.9467293   -1.3560363 
17545000   0.98833589 -0.00012214017   0.48217287  0.025550997            0   0.45662187    1.4701496    1.9523225   -2.2167287 
17550000    0.9432876 -0.00011829793   0.53682731  0.011065026            0   0.52576229    1.4031403    1.9399676   -2.0979351 
17555000   0.99583043 -8.3028309e-05   0.44482136  0.007399337            0   0.43742202    1.4812978    1.9261191  -0.90791382 
17560000   0.99425138 0.00014390743   0.43840038  0.011915757            0   0.42648462    1.4789489    1.9173493    6.8293896 
17565000   0.92498371 0.00010773127   0.50970784     0.011233            0   0.49847484    1.3759133    1.8856211    5.5628486 
17570000   0.97121345 1.2454539e-05   0.47219611  0.009441334            0   0.46275477      1.44468    1.9168761    2.3419911 
17575000   0.95636238 9.8814757e-05   0.51561085 0.0080173062            0   0.50759355     1.422589    1.9381999    5.3110769 
17580000   0.94212283 -5.5820906e-05   0.51577829  0.016835044            0   0.49894325    1.4014077     1.917186   0.01183242 
17585000   0.91321259 -9.40133e-05   0.53259281  0.032643711            0    0.4999491    1.3584037    1.8909965   -1.3179908 
17590000   0.92237724 -0.00013071745   0.53607671  0.027751681            0   0.50832503    1.3720361    1.9081129   -2.5537093 
17595000   0.98590428 -7.3949864e-05   0.45870123 0.0093303061            0   0.44937093    1.4665326    1.9252338   -0.5989215 
17600000   0.96665053 4.8623444e-05   0.50364428 0.0076395438            0   0.49600473    1.4378927    1.9415369    3.6012171 
17605000   0.95894446 4.7777755e-05   0.51622744 0.0076224506            0   0.50860499    1.4264299    1.9426573    3.5734713 
17610000   0.96855269 8.1826785e-05   0.48164397  0.013340956            0   0.46830301    1.4407221    1.9223661     4.715387 
17615000    0.9572151 2.6644504e-05   0.52396962  0.020037798            0   0.50393182    1.4238575    1.9478271    2.8572928 
17620000   0.96291429 3.4265315e-05   0.51552406  0.012604833            0   0.50291922     1.432335    1.9478591    3.1174485 
17625000   0.94757084 0.00010229169   0.52391792 0.0035918685            0   0.52032606    1.4095116    1.9334295     5.424986 
17630000   0.98120068 0.00011470557   0.45853536   0.00891863            0   0.44961673     1.459536    1.9180714    5.8333549 
17635000   0.91356744 6.4445654e-05   0.55795925  0.028470668            0   0.52948858    1.3589316    1.9168908    4.1166358 
17640000   0.98941823 0.0001225005   0.44591879 0.0046650138            0   0.44125378    1.4717596    1.9176784    6.0990288 
17645000   0.91036627 9.4638984e-05   0.56609917 0.0024222825            0   0.56367689    1.3541698     1.920269     5.150613 
17650000   0.94475357 -2.0160557e-05   0.52618098 0.0024860784            0   0.52369491    1.4053209    1.9315019    1.2433549 
17655000   0.95460388 -8.603919e-07   0.48366581  0.005793826            0   0.47787199    1.4199733    1.9036391     1.874271 
17660000   0.92598016 2.8676718e-05   0.53430423  0.012421399            0   0.52188283    1.3773955    1.9116997    2.8905317 
17665000   0.93057771 9.4906904e-05   0.50823071  0.014257745            0   0.49397297    1.3842343    1.8924651     5.131954 
17670000   0.99413653 3.9864171e-05    0.4416323  0.010806687            0   0.43082561    1.4787781    1.9204104    3.2811074 
17675000   0.92796213 -5.1132872e-05   0.53708607 0.0029740889            0   0.53411198    1.3803437    1.9174297   0.17209437 
17680000   0.90893508 -3.5771037e-05   0.58409708  0.011148577            0    0.5729485    1.3520409     1.936138   0.71515327 
17685000   0.99654379 -0.00013989981     0.476197 0.0079893041            0    0.4682077    1.4823589    1.9585559   -2.8166908 
17690000   0.95424603 4.7013883e-05   0.54388055 0.0042769597            0   0.53960359     1.419441    1.9633215    3.5680621 
17695000   0.91635847 -9.123949e-06   0.63813257 0.0027731005            0   0.63535947    1.3630832    2.0012158     1.689785 
17700000   0.97001648 -7.7924776e-05   0.55949612  0.009661703            0   0.54983441    1.4428995    2.0023956  -0.65743673 
17705000    1.0810865 3.8325914e-05   0.42161109  0.014907932            0   0.40670315    1.6081162    2.0297273    3.3379185 
17710000     1.009894 7.8341329e-05   0.50389659  0.011047998            0   0.49284859    1.5022173    2.0061139    4.6801646 
17715000   0.96832353 -4.6524849e-05   0.57487866 0.0038089048            0   0.57106975    1.4403813    2.0152599   0.42721175 
17720000   0.95490749 -0.00013167293   0.59405946 0.0005243806            0   0.59353507    1.4204249    2.0144843   -2.4799515 
17725000    1.0128876 -4.4894521e-05   0.50205225 0.0085661837            0   0.49348606    1.5066703    2.0087226   0.47632291 
17730000    1.0348906 -9.6687983e-06   0.48779604  0.038414238            0    0.4493818    1.5393998    2.0271958    1.6971675 
17735000   0.98722673 -6.8497256e-05   0.58232587  0.016475383            0   0.56585049    1.4684998    2.0508256  -0.28721404 
17740000   0.99147984 -2.5348646e-05   0.53999239  0.012346986            0   0.52764541    1.4748263    2.0148187    1.1495849 
17745000   0.98552311 0.00014872915   0.55356738  0.011257775            0    0.5423096    1.4659656     2.019533    7.0961547 
17750000    1.0002707 -6.2081186e-06   0.52351192  0.014209749            0   0.50930217    1.4879027    2.0114146    1.7995108 
17755000    0.9638548 -3.9439628e-05   0.56279362  0.025536868            0   0.53725675     1.433734    1.9965276   0.65032166 
17760000    1.0013434 0.00010886911   0.53044271  0.021068592            0   0.50937412    1.4894983     2.019941    5.7360065 
17765000    1.0486598 -4.0935913e-05   0.46269627  0.008988406            0   0.45370786    1.5598815    2.0225778   0.62529862 
17770000   0.97986545 -7.9368781e-05   0.57033258 0.0040041596            0   0.56632842    1.4575499    2.0278824  -0.68123862 
17775000    1.0292669 -8.5591927e-05   0.51389242 0.0022664371            0   0.51162598    1.5310346     2.044927  -0.87661077 
17780000    1.0534966 -0.00017004642   0.48262254 0.0094820188            0   0.47314052    1.5670761    2.0496987   -3.7545526 
17785000    1.0345162 -1.0002997e-05   0.52417527  0.011596054            0   0.51257922    1.5388428    2.0630181    1.7215824 
17790000    1.0141826 2.5847221e-05   0.54919575 0.0042124485            0    0.5449833    1.5085966    2.0577924    2.9400442 
17795000    1.0222503 2.536962e-05   0.53522645  0.013424368            0   0.52180208    1.5205973    2.0558237    2.9217734 
17800000    1.0287372 -7.5691507e-07    0.5505775  0.021312349            0   0.52926515    1.5302466    2.0808241     2.054988 
17805000     1.048166 0.00012430054   0.50726578    0.0112867            0   0.49597908    1.5591469    2.0664127    6.3092043 
17810000   0.98911262 8.4095131e-06   0.59887236  0.028875832            0   0.56999653     1.471305    2.0701774    2.3572221 
17815000   0.94424829 -0.00012692539   0.65601209  0.015798617            0   0.64021347    1.4045693    2.0605814   -2.2718051 
17820000    1.0167178 -1.146041e-05   0.53259721  0.023808225            0   0.50878899    1.5123677    2.0449649    1.6537829 
17825000    1.0318512 2.5290057e-05   0.51733334  0.022772605            0   0.49456074    1.5348786     2.052212    2.9154459 
17830000    1.0010006 5.6582067e-05   0.54674762 0.0072607593            0   0.53948687    1.4889884    2.0357361    3.9670706 
17835000    1.0093972 -8.7153126e-05    0.5371675 0.00027035128            0   0.53689715    1.5014784    2.0386459  -0.93618084 
17840000   0.99563224 -9.2558821e-05   0.51953335 0.00065271084            0   0.51888064     1.481003    2.0005363   -1.1588048 
17845000    0.9640802 4.0591904e-05   0.56042941  0.014572109            0    0.5458573    1.4340693    1.9944987    3.3800357 
17850000   0.93220571 8.2351073e-05   0.57161811  0.013997786            0   0.55762032     1.386656    1.9582741    4.7691907 
17855000   0.93491282 3.4387497e-05   0.57643515  0.022732437            0   0.55370271    1.3906828     1.967118    3.1408779 
17860000   0.90900597 -3.4296849e-05   0.59995703  0.035046498            0   0.56491054    1.3521464    1.9521034   0.78143762 
17865000   0.95576567 0.00012839202   0.52931198  0.021914544            0   0.50739743    1.4217014    1.9510134    6.3334612 
17870000   0.97768378 5.0512483e-05   0.50417404  0.012152836            0    0.4920212    1.4543046    1.9584787    3.6826381 
17875000   0.93674767 -5.7152162e-05   0.55980856  0.032530084            0   0.52727848    1.3934122    1.9532207 0.0024269323 
17880000   0.92812315 0.00015045091   0.59266282  0.043374209            0   0.54928861    1.3805832     1.973246    7.1086371 
17885000   0.89835947 0.00011818795   0.62041851  0.028238101            0   0.59218041    1.3363097    1.9567282    5.9908769 
17890000   0.91457349 -2.6656591e-05   0.59393889  0.017775003            0   0.57616389    1.3604281     1.954367    1.0444887 
17895000   0.96433723 1.3817964e-05    0.4954487  0.015032103            0    0.4804166    1.4344516    1.9299003    2.4015535 
17900000   0.93652249 0.00011702207   0.53156839 0.0097421813            0   0.52182621    1.3930772    1.9246456     5.918999 
17905000   0.96991378 2.0934381e-05    0.4615164 0.0031546211            0   0.45836178    1.4427467    1.9042632    2.6188233 
17910000   0.96333836 -8.3804298e-05   0.48000221  0.016978233            0   0.46302398    1.4329658     1.912968  -0.94755203 
17915000   0.95411135 -1.4810862e-05   0.50133972  0.011510572            0   0.48982915    1.4192406    1.9205803    1.4150363 
17920000   0.95016062 9.1804063e-05   0.50749941 0.0058836135            0   0.50161579    1.4133639    1.9208633     5.054442 
17925000   0.87112484 4.8145734e-06    0.6095248  0.015640415            0   0.59388439    1.2957982     1.905323    2.0696604 
17930000   0.92935562 2.5886878e-05   0.54883259  0.015829806            0   0.53300279    1.3824165    1.9312491    2.8148545 
17935000   0.93462347 -6.5663944e-05   0.52644055  0.014861841            0   0.51157871    1.3902524     1.916693  -0.32463633 
17940000   0.90836074 -1.5441648e-05   0.54898479    0.0305343            0   0.51845049    1.3511866    1.9001714    1.3730965 
17945000   0.92967198 8.3804064e-05   0.53686664  0.010334987            0   0.52653165    1.3828871    1.9197537    4.7802657 
17950000   0.88053025 -5.4266946e-05   0.60429246  0.023680916            0   0.58061154    1.3097887    1.9140812  0.061769436 
17955000   0.93645184 -3.5212808e-05   0.54769258  0.023938612            0   0.52375397    1.3929721    1.9406647   0.73873417 
17960000   0.93206241 1.0836569e-06   0.56107738 0.0048479038            0   0.55622948    1.3864428    1.9475202     1.984509 
17965000   0.94569005 -0.00011201037    0.5414811 0.0053463078            0   0.53613479    1.4067139     1.948195   -1.8750923 
17970000    0.9747498 -4.9347018e-05   0.50038931   0.02238071            0    0.4780086    1.4499403    1.9503296   0.26595143 
17975000   0.96026709 7.0981332e-05     0.516031 0.0092645589            0   0.50676644    1.4283973    1.9444283    4.3672578 
17980000   0.94632576 0.00013081808   0.53556314 0.0095922431            0    0.5259709    1.4076596    1.9432227    6.4084798 
17985000   0.95894254 2.9710836e-05   0.52424207  0.014758374            0    0.5094837     1.426427    1.9506691     2.964799 
17990000   0.91588719 -0.00013617499   0.58040511  0.012560615            0    0.5678445    1.3623822    1.9427873    -2.705319 
17995000   0.97347122 1.717849e-05   0.49883194  0.017918456            0   0.48091348    1.4480384    1.9468704    2.5332295 
18000000   0.93145352 6.5107209e-05   0.56511868  0.036359748            0   0.52875893    1.3855371    1.9506558    4.1729819 
18005000   0.97764726 -0.00015662314   0.49992076  0.016166257            0   0.48375451    1.4542503    1.9541711   -3.3918988 
18010000   0.97125634 3.9343732e-06   0.50480294  0.019461412            0   0.48534153    1.4447438    1.9495468      2.08384 
18015000   0.99208705 9.5608397e-05   0.45292439 0.0021101098            0   0.45081428    1.4757295    1.9286539    5.1920872 
18020000   0.98300424 9.1123029e-05   0.47358074 0.0079722244            0   0.46560851    1.4622188    1.9357995    5.0461323 
18025000   0.90545893 9.305456e-05   0.60298863  0.014457223            0   0.58853141    1.3468702    1.9498588    5.1261211 
18030000   0.94855392 1.8972018e-05   0.55539071  0.011549682            0   0.54384103    1.4109739    1.9663647    2.6139429 
18035000   0.93496636 2.6763979e-05   0.57640689 0.0063880249            0   0.57001886    1.3907625    1.9671693    2.8807132 
18040000   0.94913128 3.3568148e-05   0.56532714 0.0072063159            0   0.55812082    1.4118328    1.9771599    3.1229527 
18045000   0.95003298 -2.7097375e-05   0.55066276  0.035878312            0   0.51478445    1.4131741    1.9638368    1.0389131 
18050000   0.96588048 -6.4819941e-06   0.53123361  0.021291631            0   0.50994198    1.4367472    1.9679808    1.7467288 
18055000   0.96677777 7.6006766e-05   0.51771078 0.0088420783            0    0.5088687    1.4380819    1.9557927     4.550157 
18060000   0.94945921 -3.6817266e-05    0.5607909  0.013750212            0   0.54704068    1.4123206    1.9731115   0.71641547 
18065000    1.0008694 -0.00014807892   0.51802173  0.022660758            0   0.49536098    1.4887932    2.0068149   -3.0476122 
18070000   0.92954529 -0.00015966614   0.60012881  0.031993969            0   0.56813484    1.3826986    1.9828274   -3.4671102 
18075000   0.92452847 -4.8291742e-05   0.60655829  0.019102375            0   0.58745592    1.3752361    1.9817944   0.33343628 
18080000   0.94029899 9.0914967e-05   0.59957499  0.012469397            0    0.5871056    1.3986947    1.9982697    5.1015006 
18085000   0.96486391 7.8496036e-05   0.58602372   0.01037851            0   0.57564521    1.4352351    2.0212588    4.7005901 
18090000   0.91959266 -4.924357e-05   0.62766197  0.019411472            0    0.6082505    1.3678941    1.9955561   0.31470887 
18095000    1.0124317 3.6181523e-06   0.49022597  0.027358414            0   0.46286756    1.5059922    1.9962181    2.1197177 
18100000    1.0293248 1.9358991e-05   0.44713022  0.011730325            0    0.4353999    1.5311206    1.9782508    2.6390378 
18105000   0.97172742 1.430261e-05   0.52958422 0.0031821568            0   0.52640207    1.4454445    1.9750288    2.4632245 
18110000   0.97942407 9.9644006e-05   0.53434657 0.0033263314            0   0.53102024    1.4568933    1.9912399    5.3924219 
18115000   0.91781941 1.6818111e-05    0.6098636 0.0084536641            0   0.60140994    1.3652564      1.97512    2.5491782 
18120000   0.97942997 -0.00011812015   0.52724482  0.022766341            0   0.50447848    1.4569021    1.9841469   -2.0476875 
18125000   0.96297203 7.7547514e-05   0.53134167  0.011530942            0   0.51981073    1.4324209    1.9637626    4.6107177 
18130000    0.9899176 2.8558902e-05   0.50714116 0.0063856928            0   0.50075547    1.4725024    1.9796436    2.9544541 
18135000   0.97231346 -6.5049637e-05    0.5034314  0.010971264            0   0.49246014    1.4463163    1.9497477  -0.27061327 
18140000   0.98533024 4.3583054e-05   0.47974472 0.0091029905            0   0.47064173    1.4656787    1.9454234    3.4330583 
18145000   0.98289036 3.0829855e-05   0.47509446  0.013919253            0   0.46117521    1.4620494    1.9371439    2.9894696 
18150000   0.99717534 -4.4654323e-05   0.46483579 0.0051677448            0   0.45966805    1.4832983    1.9481341   0.42393321 
18155000   0.97422736 -7.8088876e-05   0.51710158 0.0071459334            0   0.50995565    1.4491632    1.9662648  -0.69916884 
18160000   0.94711846 -1.4953093e-05   0.55235209 0.0099862108            0   0.54236588    1.4088387    1.9611908    1.4507919 
18165000    1.0115286 5.5144431e-05   0.46689006  0.015316314            0   0.45157375    1.5046488    1.9715389    3.8538021 
18170000   0.99255087 -8.4186901e-06   0.49437513  0.016241781            0   0.47813335    1.4764194    1.9707945    1.6834366 
18175000   0.99183126 -1.6839298e-05   0.51153434  0.026907501            0   0.48462683     1.475349    1.9868833    1.4121019 
18180000    0.9219583 6.9711761e-05   0.62066762  0.026650344            0   0.59401728     1.371413    1.9920806    4.3715754 
18185000   0.99497927 8.7916358e-05   0.49586558  0.027564598            0   0.46830098    1.4800317    1.9758972    4.9767756 
18190000   0.99309642 9.4989079e-05   0.48348011  0.012312946            0   0.47116716    1.4772309     1.960711    5.2030049 
18195000   0.96529498 -7.8185319e-05   0.54619298  0.008365794            0   0.53782718    1.4358763    1.9820693  -0.68665629 
18200000    1.0727233 -0.00010078696   0.39748914  0.015537586            0   0.38195155    1.5956759     1.993165   -1.4470299 
18205000   0.93740462 -7.8738997e-06   0.60528084  0.018383157            0   0.58689768    1.3943894    1.9996702    1.7309078 
18210000    0.9700927 1.0653939e-05    0.5341626 0.0097914959            0    0.5243711    1.4430129    1.9771755    2.3408299 
18215000   0.93648038 3.1773346e-06   0.57311259  0.015527912            0   0.55758467    1.3930146    1.9661271    2.0745802 
18220000   0.95343258 1.0659988e-05   0.53599526  0.017321189            0   0.51867407     1.418231    1.9542262    2.3180871 
18225000   0.99470096 8.0491784e-05   0.46856373  0.049021544            0   0.41954219    1.4796177    1.9481814    4.6956343 
18230000   0.98196154 -4.2868097e-06   0.48415444  0.035537501            0   0.44861694    1.4606678    1.9448222    1.7984991 
18235000   0.94168528 -8.032782e-05    0.5562926   0.02505377            0   0.53123883    1.4007569    1.9570495  -0.78480682 
18240000   0.97709217 9.7862809e-05   0.50548779 0.0097300878            0    0.4957577    1.4534246    1.9589124    5.2992963 
18245000   0.96074743 -2.49348e-05    0.5005284  0.014539592            0   0.48598881    1.4291118    1.9296402    1.0785324 
18250000   0.95045864 -9.9639338e-05   0.51608469  0.034430992            0    0.4816537    1.4138072    1.9298919   -1.4711308 
18255000   0.90471854 3.6686331e-05    0.5746123   0.04435254            0   0.53025976    1.3457688    1.9203811    3.1726079 
18260000   0.94426233 2.3399252e-05   0.51069987  0.024048962            0   0.48665091    1.4045902    1.9152901    2.7139845 
18265000   0.93260972 -5.3193554e-05   0.54202778  0.013646038            0   0.52838174     1.387257    1.9292847   0.11361145 
18270000   0.98807114 0.00011948215   0.46366404  0.026893063            0   0.43677097    1.4697558    1.9334199     6.011744 
18275000   0.95726572 3.4896483e-05   0.50581214  0.033718791            0   0.47209335    1.4239328    1.9297449    3.1208782 
18280000   0.96160314 -0.00017303043   0.51142687   0.03300567            0    0.4784212    1.4303847    1.9418115   -3.9642939 
18285000   0.93583031 -0.00017247806   0.53430682 0.0049745029            0   0.52933232    1.3920476    1.9263544   -3.9608968 
18290000    0.9575175 -3.3454251e-05   0.50434382 0.0056897066            0   0.49865412    1.4243073    1.9286511   0.78674601 
18295000   0.91475541 9.2188717e-05   0.58183037  0.015276459            0   0.56655391    1.3606987     1.942529    5.0892372 
18300000   0.99681913 7.8458049e-05   0.46425266  0.011148942            0   0.45310372    1.4827685    1.9470211    4.6250559 
18305000   0.90302294 -0.00014464183   0.56390859 0.0080036006            0   0.55590499    1.3432466    1.9071552   -3.0299525 
18310000   0.92924213 -9.3194404e-05   0.50899278 0.0053007708            0   0.50369201    1.3822477    1.8912405   -1.2897952 
18315000   0.94674742 5.7918852e-05   0.48412283 0.0051260543            0   0.47899677    1.4082868    1.8924096    3.8693731 
18320000   0.96621738 -1.3332883e-05   0.47231771 0.0081616192            0   0.46415609    1.4372484    1.9095661    1.4544703 
18325000   0.90354429 -6.3971391e-05    0.5820757   0.01162709            0   0.57044861    1.3440221    1.9260978  -0.25745898 
18330000   0.94526995 -8.728297e-05   0.52943686  0.027514341            0   0.50192252     1.406089    1.9355259   -1.0437328 
18335000   0.92860674 -0.0001463733   0.57703211  0.040609946            0   0.53642216    1.3813025    1.9583346   -3.0378741 
18340000   0.99197249 0.00015339742   0.52533122  0.044909043            0   0.48042217    1.4755591    2.0008903    7.2368555 
18345000   0.95265584 0.00017728301   0.56530604  0.011651182            0   0.55365485    1.4170756    1.9823816    8.0336418 
18350000   0.95442809 -0.00010976967   0.55861209  0.022665284            0   0.53594681    1.4197118    1.9783239    -1.768481 
18355000   0.95574428 -7.6381303e-05   0.57640031  0.029992578            0   0.54640773    1.4216696    1.9980699  -0.60907854 
18360000    1.0016646 0.00020312306   0.52188023  0.014440314            0   0.50743992     1.489976    2.0118563    8.9451235 
18365000    1.0326297 9.5338461e-05   0.48453818  0.011461913            0   0.47307627    1.5360368    2.0205749    5.2747944 
18370000    1.0559316 -4.1618445e-05   0.46255594   0.01907809            0   0.44347785    1.5706983    2.0332542     0.612678 
18375000   0.96863974 -3.6613764e-05   0.58818278  0.008953836            0   0.57922895    1.4408516    2.0290344   0.77928457 
18380000    1.0403519 -9.9348051e-05   0.47831295 0.0047415987            0   0.47357136    1.5475234    2.0258364   -1.3652438 
18385000    1.0402251 9.4672477e-06   0.47190611  0.017435248            0   0.45447086    1.5473348    2.0192409    2.3423896 
18390000   0.96202161 5.3431001e-05   0.59052501  0.055827759            0   0.53469725    1.4310071    2.0215322    3.8453103 
18395000    1.0220206 0.00012836485   0.49659126  0.026812213            0   0.46977905    1.5202557     2.016847    6.3983671 
18400000   0.97690423 1.0566344e-05   0.56175071  0.027509352            0   0.53424136     1.453145    2.0148957    2.3755603 
18405000   0.96652281 -3.3649854e-05   0.54473721   0.04956919            0   0.49516802    1.4377027    1.9824399   0.83385822 
18410000    1.0041898 -5.1364735e-05   0.50730434  0.044437351            0   0.46286699    1.4937323    2.0010366     0.247787 
18415000   0.99215831 -3.880299e-06   0.53326697  0.013220751            0   0.52004622    1.4758355    2.0091024    1.8766549 
18420000   0.97616574 4.5322787e-05   0.53888049 0.0040642694            0   0.53481622    1.4520465     1.990927    3.5379448 
18425000    1.0593857 -4.4791758e-05    0.3916383 0.0091951092            0   0.38244319    1.5758362    1.9674745   0.43858254 
18430000   0.98391826 -9.7488174e-07   0.48673293  0.052973474            0   0.43375945    1.4635784    1.9503113    1.9170354 
18435000   0.95397879 0.00013536159   0.54399956  0.017327821            0   0.52667174    1.4190434     1.963043    6.5833852 
18440000   0.90848335 2.4611633e-05   0.59243631  0.018873184            0   0.57356313     1.351369    1.9438053    2.7838824 
18445000   0.95546404 0.00014036002   0.51863236  0.012724253            0   0.50590811    1.4212528    1.9398851    6.7308404 
18450000   0.99632891 6.0211827e-05   0.46534173   0.01507641            0   0.45026532    1.4820392     1.947381    4.0026113 
18455000   0.96285632 4.6477947e-05   0.53243905  0.029777488            0   0.50266156    1.4322488    1.9646878    3.5511351 
18460000   0.96603037 -2.280309e-06   0.52799838 0.0070137039            0   0.52098467    1.4369702    1.9649686     1.887134 
18465000   0.99891988 -1.7858986e-05   0.48254897 0.0075361539            0   0.47501282    1.4858933    1.9684423    1.3588556 
18470000    1.0404329 5.2811918e-05   0.43831744 0.0060660434            0    0.4322514    1.5476439    1.9859613    3.7886081 
18475000    1.0205723 -4.2443226e-05   0.46733616 0.0043707066            0   0.46296545    1.5181013    1.9854375   0.53670868 
18480000    1.0133533 -0.00014862085   0.49199106  0.013965413            0   0.47802564     1.507363     1.999354   -3.0735709 
18485000   0.97818054 1.2391607e-06   0.58011539   0.02030366            0   0.55981173    1.4550436    2.0351589    2.0774556 
18490000    1.0151984 0.00019259182   0.52041009  0.026449628            0   0.49396046    1.5101076    2.0305177    8.6043185 
18495000     1.076174 4.5246042e-06   0.43861284 0.0091020606            0   0.42951078    1.6008088    2.0394217    2.1938615 
18500000    1.0373033 5.378426e-05   0.50425645 0.0059660067            0   0.49829044    1.5429887    2.0472452    3.8830813 
18505000    1.0602898 -6.7643459e-05   0.45932252  0.015076275            0   0.44424624     1.577181    2.0365036  -0.27239318 
18510000    1.0734361 6.9408089e-05   0.43696047  0.007991301            0   0.42896917    1.5967361    2.0336966     4.402826 
18515000    1.1073241 7.2384246e-05   0.38761228  0.016359167            0   0.37125311    1.6471446    2.0347568    4.5054725 
18520000    1.0192047 -8.522785e-05   0.54323234  0.010532364            0   0.53269997     1.516067    2.0592993  -0.84981127 
18525000    1.0603206 0.0002403506    0.4899126 0.0035229263            0   0.48638967    1.5772269    2.0671395    10.271107 
18530000    1.0068323 -4.6382766e-05   0.55359238 0.0021654228            0   0.55142696    1.4976631    2.0512555   0.46805709 
18535000    1.0344205 -3.1159111e-05   0.51857516  0.029208405            0   0.48936675    1.5387005    2.0572757   0.99371138 
18540000    1.0838769 5.4587501e-05   0.46554525  0.026198503            0   0.43934675    1.6122669    2.0778122    3.9410656 
18545000    1.1125174 2.1299924e-05   0.39074122  0.023339399            0   0.36740182    1.6548696    2.0456108    2.7726482 
18550000    1.0024047 3.6990058e-05   0.50550874  0.013001841            0    0.4925069     1.491077    1.9965857    3.2591797 
18555000   0.99431689 -4.7180417e-05   0.53244321  0.024333615            0    0.5081096    1.4790464    2.0114896   0.40106469 
18560000   0.99585168 0.00016480962   0.54754774  0.019520295            0   0.52802745    1.4813294    2.0288771    7.6543787 
18565000   0.94214065 -0.00013096151   0.60811142  0.013850735            0   0.59426069    1.4014342    2.0095456   -2.4606071 
18570000    1.0416605 1.9129081e-05   0.48365925 0.0023844071            0   0.48127484      1.54947    2.0331292    2.6860685 
18575000    1.0151366 0.00013202997   0.52927821 0.0012211094            0    0.5280571    1.5100157    2.0392939    6.5459167 
18580000    1.0823682 -9.8015174e-05   0.42512228 0.0048252953            0   0.42029698    1.6100227    2.0351449   -1.3104397 
18585000   0.99089585 -6.815206e-05   0.54409724  0.017417846            0   0.52667939    1.4739576    2.0180548  -0.30820217 
18590000    1.0244125 -5.7707502e-05   0.48649461  0.015550688            0   0.47094393    1.5238136    2.0103083  0.040558866 
18595000     1.003681 -0.00016550168   0.55112095  0.011260762            0   0.53986019    1.4929754    2.0440964   -3.6050278 
18600000    1.0516616 -7.5992702e-05   0.46659335  0.017842766            0   0.44875058    1.5643467      2.03094   -0.5629442 
18605000    0.9585912 -2.3605148e-06   0.61627469  0.034783063            0   0.58149163    1.4259044    2.0421791    1.9616069 
18610000    1.0223517 -3.5032372e-05   0.50509858  0.044027636            0   0.46107095    1.5207481    2.0258467   0.83007505 
18615000    1.0138145 -5.1736648e-06   0.51196386  0.051750611            0   0.46021325     1.508049    2.0200129    1.8434185 
18620000    1.0728901 0.00013646193    0.4247034  0.015407709            0   0.40929569     1.595924    2.0206274    6.6785278 
18625000     1.027807 0.00026486621   0.48628977  0.017370511            0   0.46891926     1.528863    2.0151527    11.055919 
18630000    1.0239308 0.00012937738   0.48627313  0.017130049            0   0.46914308    1.5230971    2.0093702    6.4254514 
18635000   0.99195015 -8.4678159e-05   0.54273085  0.031360242            0   0.51137061    1.4755259    2.0182567  -0.87209114 
18640000    1.0621105 8.0232311e-05   0.44079521  0.030394877            0   0.41040033    1.5798894    2.0206846    4.7592808 
18645000   0.99652028 0.00013214424     0.530201  0.042262503            0    0.4879385    1.4823239    2.0125249    6.5230482 
18650000    1.0517981 -1.3876411e-05   0.44537397  0.016380756            0   0.42899322    1.5645496    2.0099236    1.5362755 
18655000   0.94546849 -9.5454088e-06    0.5880873  0.030352612            0   0.55773469    1.4063844    1.9944717    1.6686551 
18660000   0.98510003 0.00011677989   0.51822063  0.062723775            0   0.45549685    1.4653363    1.9835569    5.9696437 
18665000    1.0686065 2.8452968e-05   0.42923816  0.029510544            0   0.39972762    1.5895522    2.0187903     2.989985 
18670000   0.95610628 -0.00019152235     0.627017  0.038249341            0   0.58876766    1.4222081    2.0492251    -4.488071 
18675000    1.0588726 -0.00011697434   0.45421021  0.028490938            0   0.42571927     1.575073    2.0292832   -1.9634411 
18680000     1.035168 0.00016620798   0.49471273  0.069456965            0   0.42525576    1.5398124    2.0345252    7.7077574 
18685000    1.0073522 0.00014568221   0.52700925  0.035700384            0   0.49130887    1.4984363    2.0254456     6.998065 
18690000    1.0084191 2.7696054e-05   0.51390655  0.035547907            0   0.47835865    1.5000235      2.01393    2.9592887 
18695000    1.0176338 5.6191179e-05   0.52649736  0.034203821            0   0.49229354    1.5137303    2.0402277    3.9582199 
18700000   0.99064154 8.8427704e-06   0.57471193  0.021464426            0    0.5532475    1.4735793    2.0482912    2.3501245 
18705000    1.0747279 -1.5618058e-05   0.44212409  0.030628568            0   0.41149552    1.5986578    2.0407819    1.5076855 
18710000    1.0492269 -0.00010659349   0.47472042  0.017779765            0   0.45694066    1.5607251    2.0354455   -1.6029457 
18715000     1.077649 -6.4310977e-05   0.44541592 0.0011438512            0   0.44427207    1.6030029    2.0484188  -0.14672922 
18720000    1.0540654 7.6819723e-05   0.49115504  0.012914089            0   0.47824095    1.5679223    2.0590774    4.6811906 
18725000    1.0369668 3.9399917e-05   0.50388179  0.029633447            0   0.47424835    1.5424881    2.0463699    3.3912204 
18730000   0.98224649 -4.4685928e-05   0.57596769    0.0104412            0   0.56552649    1.4610917    2.0370593   0.51177967 
18735000    1.0475376 3.7288655e-05   0.48281986  0.010053411            0   0.47276645    1.5582121     2.041032    3.3138181 
18740000    1.0496564 1.8502889e-05   0.47454888  0.010470605            0   0.46407827    1.5613638    2.0359127     2.667478 
18745000    1.0649963 7.2451725e-05   0.43570373   0.01491364            0   0.42079009    1.5841819    2.0198857    4.4929045 
18750000     1.085248  0.000111434   0.42359904  0.018160646            0   0.40543839    1.6143064    2.0379055    5.8415191 
18755000    1.0169702 -6.2950214e-05   0.53324248  0.038051674            0    0.4951908    1.5127432    2.0459856  -0.10271499 
18760000    1.0046513 -6.2180615e-05   0.61207085  0.041504505            0   0.57056635    1.4944189    2.1064897 -0.015941927 
18765000    1.0817442 -8.1757969e-05   0.48481073  0.018421372            0   0.46638936    1.6090945    2.0939053  -0.69676674 
18770000    1.0583559 -2.0583003e-06   0.52576829  0.012585426            0   0.51318287    1.5743044    2.1000727     2.029816 
18775000    0.9959781 4.7682469e-05   0.63085213  0.027499445            0   0.60335268    1.4815174    2.1123695    3.7399312 
18780000    1.0678652 -5.833456e-05   0.50625702  0.013395372            0   0.49286165    1.5884495    2.0947066   0.10355358 
18785000    1.1058211 4.6311678e-05   0.44551447  0.035071321            0   0.41044315    1.6449089    2.0904234    3.6711953 
18790000     1.094619 1.1273128e-05   0.47828309  0.023673038            0   0.45461005    1.6282458    2.1065289    2.4913183 
18795000    1.0329367 -6.7670728e-05   0.54537803  0.026794167            0   0.51858387    1.5364933    2.0818713  -0.22795621 
18800000    1.0323109 0.00011752367   0.55104043  0.030565897            0   0.52047453    1.5355625     2.086603    6.0980775 
18805000    1.0393376 -3.3291855e-06   0.51914851  0.017707075            0   0.50144143    1.5460147    2.0651632     1.951527 
18810000     1.097013 -0.00013444585   0.43137514  0.012311775            0   0.41906336    1.6318068     2.063182   -2.5259031 
18815000   0.99830481 -0.00019292786    0.5707588  0.014580604            0    0.5561782    1.4849784    2.0557372   -4.5295338 
18820000    1.0522128 -0.00015779879   0.49901872  0.055477008            0   0.44354171    1.5651666    2.0641853   -3.3220135 
18825000   0.98044409 8.1453032e-05   0.61672666   0.02654929            0   0.59017737    1.4584106    2.0751372    4.8554007 
18830000    1.0300086 6.6004314e-05   0.55424993  0.021891708            0   0.53235822    1.5321378    2.0863877     4.339335 
18835000    1.0769224 1.7756144e-05   0.48169643  0.021891827            0    0.4598046    1.6019221    2.0836185    2.6896949 
18840000    1.0038549 -0.00012732641   0.59300537  0.050896139            0   0.54210923    1.4932341    2.0862395   -2.2598354 
18845000    1.0497977 2.1239944e-05   0.52273754  0.046199504            0   0.47653803    1.5615741    2.0843117    2.8093018 
18850000     1.061023 -0.00011491609   0.50320787  0.045724187            0   0.45748368    1.5782717    2.0814796   -1.8409895 
18855000    1.0448454 -2.4257731e-05   0.50570159  0.045083819            0   0.46061777    1.5542075    2.0599091    1.2319119 
18860000    1.0584435 5.9852309e-05   0.46597908  0.022068777            0    0.4439103    1.5744347    2.0404138    4.0833726 
18865000    1.0343082 -1.4308694e-05   0.49670672  0.031351366            0   0.46535535    1.5385335    2.0352402    1.5468368 
18870000    1.0941269 9.3384988e-06   0.41747236  0.033760193            0   0.38371217    1.6275137    2.0449861    2.3637402 
18875000    1.0279568 2.9533973e-05   0.50336519  0.024540626            0   0.47882457    1.5290858     2.032451    3.0405439 
18880000    1.0505223 6.655178e-05   0.46735291  0.010628882            0   0.45672403     1.562652    2.0300049     4.301639 
18885000     1.075727 -0.00015706941   0.43043932  0.013788728            0   0.41665059    1.6001439    2.0305832   -3.3307194 
18890000    1.0902955 -5.656419e-05   0.41631921  0.010744278            0   0.40557493    1.6218146    2.0381338   0.10740947 
18895000    1.0141624 -2.6683374e-05   0.53838471  0.013893243            0   0.52449147    1.5085666    2.0469513    1.1361588 
18900000    1.0222716 1.7210208e-05   0.55962184  0.018332925            0   0.54128891     1.520629    2.0802509    2.6676926 
18905000    1.0671289 0.00021602992   0.49091628  0.017775491            0   0.47314079    1.5873543    2.0782706    9.4520919 
18910000    1.0515543 -7.0790254e-05   0.49967648  0.015855108            0   0.48382138     1.564187    2.0638635   -0.3524438 
18915000    1.0151587 -0.00014770311   0.54152423  0.020117412            0   0.52140682    1.5100485    2.0515727   -2.9900268 
18920000    1.0556142 8.3406073e-05   0.47980367  0.016166266            0    0.4636374    1.5702262    2.0500298    4.8969571 
18925000    1.0667467 7.1624897e-05   0.46576337   0.02972693            0   0.43603644    1.5867857    2.0525491    4.4973455 
18930000    1.0531152 2.8884891e-05    0.5033527  0.027288013            0   0.47606468    1.5665089    2.0698616    3.0557992 
18935000    0.9855397 2.2815633e-05   0.60923715   0.10593179            0   0.50330536    1.4659903    2.0752275    2.8540011 
18940000    1.0633761 -0.00012021979   0.50017929  0.056531126            0   0.44364816     1.581772    2.0819513   -2.0215508 
18945000    1.0686866 -3.2673959e-05   0.50878015  0.015717203            0   0.49306294    1.5896714    2.0984515   0.98318037 
18950000    1.1252157 0.00014182527   0.42783446  0.026804344            0   0.40103012    1.6737584    2.1015929    6.9425623 
18955000    1.0558203 9.509655e-05   0.54688004  0.019586051            0   0.52729399    1.5705327    2.1174127     5.363375 
18960000    1.1665247 0.00011853672   0.39603192 0.0080346781            0   0.38799724    1.7352054    2.1312373    6.1772909 
18965000    1.1039868 -7.8631143e-05   0.45903968 0.0097589594            0   0.44928072    1.6421804    2.1012201  -0.58272291 
18970000    1.0979216 -0.00012026172   0.45253898  0.030803787            0    0.4217352    1.6331584    2.0856974   -2.0192361 
18975000    1.1053368 2.4894869e-06   0.44857897  0.018392575            0   0.43018639    1.6441884    2.0927674    2.1777419 
18980000    1.0768672 -0.00010328224   0.49096519  0.005228119            0   0.48573707      1.60184    2.0928052   -1.4325618 
18985000    1.1229491 0.00016004717   0.45108504 0.0073191475            0   0.44376589    1.6703868    2.1214718    7.5844153 
18990000    1.1011229 0.00018408234   0.48022838  0.020030849            0   0.46019753    1.6379203    2.1181487    8.4014926 
18995000    1.0689067 8.0016049e-05    0.5230814  0.047787415            0   0.47529399    1.5899987    2.1130801    4.8442946 
19000000    1.0701314 -5.1485795e-05   0.51243131  0.035261225            0   0.47717009    1.5918204    2.1042517   0.34686993 
19005000    1.0887122 9.5888407e-05   0.47414485  0.018722868            0   0.45542198    1.6194594    2.0936043    5.3665953 
19010000    1.0418156 5.6659008e-05   0.50002774  0.016368604            0   0.48365914    1.5497006    2.0497284    3.9836892 
19015000    1.0669407 -7.6326587e-05   0.46727611  0.042680513            0    0.4245956    1.5870743    2.0543504  -0.55093039 
19020000    1.0860516 1.2107106e-06   0.45129134  0.071971308            0   0.37932003    1.6155018    2.0667931    2.1081187 
19025000    1.0370471 3.738184e-05   0.53917031  0.032795549            0   0.50637476    1.5426076    2.0817779    3.3577447 
19030000     1.107064 -4.9210944e-05   0.45468195  0.010575349            0    0.4441066    1.6467577    2.1014397   0.42170614 
19035000    1.0686327  5.44308e-06   0.50977719 0.0072613851            0   0.50251581    1.5895912    2.0993684    2.2851588 
19040000    1.1242089 -2.0119819e-05   0.41663769   0.01569024            0   0.40094745    1.6722607    2.0888984    1.4021419 
19045000    1.0437333 1.4870319e-05   0.55445632  0.027507946            0   0.52694837    1.5525534    2.1070097    2.6145832 
19050000     1.102102 0.00010426279   0.47180409  0.064580883            0   0.40722321    1.6393767    2.1111808    5.6700173 
19055000    1.0686164 -1.2980744e-06   0.48749061  0.053872305            0   0.43361831     1.589567    2.0770576      2.03275 
19060000    1.0722547 -4.0589139e-05   0.49689588 0.0090719964            0   0.48782388    1.5949788    2.0918747   0.70643211 
19065000    1.0952431 -3.6926786e-05    0.4544835  0.021066878            0   0.43341663    1.6291741    2.0836576   0.82322331 
19070000    1.0728502 5.0860755e-05   0.49286638  0.027837234            0   0.46502914    1.5958647    2.0887311    3.8247782 
19075000    1.1370349 2.8057993e-05     0.414225  0.015561377            0   0.39866362    1.6913394    2.1055644    3.0632773 
19080000    1.0782324 0.00010064367   0.47933192 0.0035956501            0   0.47573627    1.6038707    2.0832026    5.5185066 
19085000     1.032436 0.00015522684   0.54913511  0.014361178            0   0.53477394    1.5357486    2.0848837     7.383293 
19090000    1.0661962 0.00025184867   0.51449591  0.039090009            0    0.4754059    1.5859668    2.1004627    10.696897 
19095000    1.0552899 9.551875e-05   0.52023756  0.014845795            0   0.50539177    1.5697438    2.0899813    5.3503547 
19100000    1.0979636 -4.7571719e-05   0.43782968  0.023453213            0   0.41437647    1.6332209    2.0710506   0.44726921 
19105000     1.027573 -8.9072842e-05   0.55889568  0.025005859            0   0.53388982    1.5285148    2.0874105  -0.95294252 
19110000     1.098291 -0.00013988038   0.44728878   0.01041373            0   0.43687505    1.6337079    2.0809967   -2.6935868 
19115000      1.04945 4.7512258e-06   0.53226524  0.018040286            0   0.51422495    1.5610569    2.0933222    2.2554973 
19120000     1.085016 2.2550213e-05   0.47152478  0.017815609            0   0.45370918    1.6139613    2.0854861       2.8552 
19125000    1.0958586 -4.0714518e-05   0.42703551  0.011765174            0   0.41527034    1.6300897    2.0571252   0.66740299 
19130000    1.0579018 5.4221754e-06   0.48050217  0.042766777            0   0.43773539    1.5736289    2.0541311     2.239208 
19135000    1.0803304 -7.9568335e-05   0.44490162  0.032675405            0   0.41222622    1.6069914     2.051893  -0.66403946 
19140000    1.0335271 -0.00014475691   0.51221044  0.038053803            0   0.47415664    1.5373715    2.0495819   -2.8914538 
19145000    1.0866577 -4.4882739e-05   0.42173182  0.026282112            0   0.39544971    1.6164033    2.0381351   0.50613764 
19150000    1.0245567 -5.2779007e-05   0.50108374  0.015899399            0   0.48518434     1.524028    2.0251118   0.22358831 
19155000     1.075904 -7.0518427e-05   0.43413157  0.016218386            0   0.41791318    1.6004071    2.0345387  -0.37249028 
19160000      1.06192 0.00013967556   0.46540684  0.018741474            0   0.44666537     1.579606    2.0450129    6.8126052 
19165000    1.1285935 -2.624476e-05   0.36616857 0.0045150449            0   0.36165353    1.6787829    2.0449514    1.1491303 
19170000    1.0295345 -0.00016267505   0.51998716 0.0081103081            0   0.51187685    1.5314326    2.0514198   -3.5012218 
19175000    1.0850842 -5.9861074e-06   0.43121985 0.0092930763            0   0.42192678    1.6140628    2.0452826    1.8409568 
19180000    1.0386021 -0.000191959   0.50419423   0.01798275            0   0.48621148    1.5449206    2.0491148   -4.5030857 
19185000    1.0223136 -6.005488e-05     0.518871  0.054322155            0   0.46454884    1.5206915    2.0395625 -0.010310715 
19190000    1.0664468 4.5648259e-05   0.44066909  0.019847143            0   0.42082195    1.5863396    2.0270087    3.5851359 
19195000    1.0898825 5.3656903e-05   0.39962293  0.013043249            0   0.38657968    1.6212002    2.0208232    3.8523121 
19200000   0.98528781 6.1426905e-05   0.55000885 0.0022616894            0   0.54774716    1.4656156    2.0156245    4.1123295 
19205000    1.0486992 4.8459792e-05    0.4545958 0.0015556975            0    0.4530401      1.55994    2.0145358      3.66863 
19210000    1.0848778 -5.6162154e-05   0.40426131  0.013956329            0   0.39030499    1.6137558    2.0180171   0.10101561 
19215000    1.0182672 -0.00014712725   0.49979528  0.012577774            0   0.48721751    1.5146724    2.0144677   -3.0074758 
19220000    1.0209691 -5.0938721e-05   0.50644108  0.006411569            0   0.50002951    1.5186915    2.0251326   0.28642425 
19225000    1.0255207 0.00013246063   0.51260589 0.0080816567            0   0.50452423     1.525462    2.0380679    6.5593907 
19230000    1.0224243 0.00025439879   0.52046908  0.030608939            0   0.48986014    1.5208561    2.0413252    10.724804 
19235000    1.0458027 6.3045806e-05     0.480052  0.038148826            0   0.44190317    1.5556316    2.0356836    4.1876471 
19240000    1.0485383 -0.00012360503   0.48145664  0.015762888            0   0.46569375    1.5597008    2.0411574   -2.1778944 
19245000    1.0457862 -0.00011455703   0.45251679  0.010260911            0   0.44225588     1.555607    2.0081238   -1.9020896 
19250000    1.0005517 -1.6067793e-06   0.51644991  0.032747856            0   0.48370206    1.4883207    2.0047706    1.9499258 
19255000   0.93102688 7.5122406e-05   0.60122099  0.079155037            0   0.52206595    1.3849025    1.9861235    4.5503016 
19260000    1.0058971 7.1292702e-05      0.48696  0.060678651            0   0.42628135    1.4962719    1.9832319    4.4166894 
19265000    1.0164232 -1.7541784e-05   0.46621779  0.025006098            0    0.4412117    1.5119295    1.9781473    1.3793877 
19270000   0.97677291 -5.5568031e-05   0.54085837 0.0080649031            0   0.53279346    1.4529497    1.9938081  0.097085957 
19275000    1.0466357 9.2920924e-06   0.44613473  0.012158669            0   0.43397606    1.5568707    2.0030054    2.3201755 
19280000   0.99279646 2.8381293e-05    0.5184156  0.065492665            0   0.45292294    1.4767847    1.9952003    2.9639485 
19285000    1.0492724 -6.6456484e-05   0.43895022  0.053154262            0   0.38579596    1.5607927    1.9997429  -0.26863841 
19290000   0.99071051 -9.5271226e-05   0.51106147  0.039874615            0   0.47118686    1.4736819    1.9847434   -1.2671812 
19295000    0.9246801 -4.2452543e-05    0.5935926  0.098233042            0   0.49535955    1.3754617    1.9690542   0.52000746 
19300000    1.0341321 0.00021960636   0.46075634   0.03942397            0   0.42133237    1.5382716    1.9990279    9.4949251 
19305000     1.031727 0.00031721301   0.48943049  0.037777401            0   0.45165309     1.534694    2.0241245    12.851662 
19310000     1.005441 1.1810049e-05   0.54003701  0.025811757            0   0.51422525    1.4955934    2.0356304    2.4387468 
19315000    1.0743874 -4.869998e-05   0.46525355   0.01233118            0   0.45292237    1.5981512    2.0634048   0.40111212 
19320000     1.099096 0.0001233996   0.44471935  0.016532489            0   0.42818686    1.6349053    2.0796246    6.2916644 
19325000    1.0539047 8.3130302e-06   0.53527421  0.043557881            0   0.49171633    1.5676832    2.1029574    2.3867089 
19330000    1.1337064 -1.1878094e-05   0.41143282  0.012157531            0   0.39927529    1.6863883    2.0978211    1.6923822 
19335000    1.1045987 7.9286634e-05   0.45918921 0.0081268905            0   0.45106232    1.6430906    2.1022798    4.8085969 
19340000    1.0653989 1.3332532e-05   0.51903001  0.019770959            0   0.49925905    1.5847808    2.1038108    2.5588946 
19345000    1.1304005 -2.9070321e-06   0.42180001  0.045331922            0   0.37646809    1.6814708    2.1032708    2.0040441 
19350000    1.0555676 -7.3364584e-05   0.51391482  0.027126845            0   0.48678798    1.5701568    2.0840716  -0.42010622 
19355000    1.0509166 -6.6055767e-05    0.5217374  0.021561855            0   0.50017555    1.5632385    2.0849759  -0.16972764 
19360000    1.0814318 4.9131352e-05   0.47496054  0.017604366            0   0.45735617    1.6086298    2.0835903    3.7606072 
19365000    1.0983966 2.9668475e-05   0.46935229  0.021927964            0   0.44742433     1.633865    2.1032173    3.1159012 
19370000    1.1046555 7.307984e-05    0.4743549  0.020293816            0   0.45406108    1.6431751      2.11753    4.6119885 
19375000    1.0993296 1.8526874e-05    0.4900197  0.018454947            0   0.47156475    1.6352528    2.1252725    2.7576565 
19380000    1.1225135 -0.00017899904   0.47649366  0.012211626            0   0.46428203    1.6697389    2.1462325   -3.9636012 
19385000     1.126904 -8.3313531e-05   0.46535388  0.023616894            0   0.44173698    1.6762698    2.1416236   -0.7021449 
19390000     1.146998 0.0001030476   0.44597373  0.026130565            0   0.41984317    1.7061595    2.1521332    5.6694913 
19395000    1.1467969 0.00011553797   0.45679307  0.035758539            0   0.42103454    1.7058603    2.1626534    6.1063495 
19400000    1.0633369 8.1581492e-05   0.56669049  0.033528428            0   0.53316206    1.5817137    2.1484042    4.9330524 
19405000    1.0312244 7.9206641e-05   0.58406715  0.042808194            0   0.54125896    1.5339463    2.1180135    4.8216002 
19410000    1.0889399 5.5887818e-05   0.49376006  0.011449582            0   0.48231047    1.6197981    2.1135581    4.0211956 
19415000    1.1019553 8.8994048e-05   0.49198381    0.0297213            0   0.46226251    1.6391585    2.1311423    5.1688058 
19420000    1.1004483 0.00010121457   0.49427034  0.052972298            0   0.44129804    1.6369168    2.1311871    5.5859778 
19425000    1.1259674 -2.0317375e-05   0.46557635  0.025511128            0   0.44006522    1.6748764    2.1404528     1.446953 
19430000    1.1398934 6.6961366e-06   0.45746899  0.015420668            0   0.44204832    1.6955915    2.1530605    2.3816219 
19435000    1.1030479 4.963883e-05   0.52413001  0.008679597            0   0.51545041    1.6407837    2.1649137    3.8592525 
19440000    1.1909391 6.5396977e-05   0.42055079  0.004841721            0   0.41570907    1.7715218    2.1920726    4.4242894 
19445000    1.1034397 -1.7285107e-05   0.53713667  0.022905597            0   0.51423107    1.6413666    2.1785032    1.5885049 
19450000    1.0711191 -0.00012057952   0.54242888  0.032519403            0   0.50990948    1.5932896    2.1357185   -1.9800625 
19455000    1.0733175 -0.00025197444   0.54583061  0.057460609            0      0.48837    1.5965597    2.1423903   -6.4583372 
19460000    1.0711879 -8.5809171e-05   0.52907481  0.019026708            0   0.51004811     1.593392    2.1224668  -0.80648628 
19465000    1.1349339 0.00015463861   0.41605412  0.015138768            0   0.40091535    1.6882142    2.1042683    7.3825995 
19470000     1.080117 3.3209743e-05   0.48578536  0.012376918            0   0.47340844    1.6066741    2.0924595    3.2260187 
19475000    1.0592028 3.5960463e-05   0.52733927  0.028837142            0   0.49850213    1.5755642    2.1029035    3.3303539 
19480000    1.0899629 2.3465148e-05   0.48539706  0.021542734            0   0.46385433    1.6213198    2.1067168    2.9076606 
19485000    1.1085037 -5.7774762e-05   0.46003356  0.028932185            0   0.43110138    1.6488992    2.1089328   0.13688755 
19490000    1.0840336 -0.00017466113   0.46541849  0.012816514            0   0.45260197       1.6125    2.0779185   -3.8838479 
19495000     1.066674 -2.7147048e-05   0.50186388  0.013338149            0   0.48852573    1.5866776    2.0885415    1.1619223 
19500000    1.0723858 0.00015815202   0.50205369  0.043772324            0   0.45828136    1.5951738    2.0972275     7.495483 
19505000    1.0771547 8.249251e-05   0.49008808  0.039396595            0   0.45069148    1.6022676    2.0923557       4.9081 
19510000    1.0220488 8.3986312e-05   0.56704209  0.072292638            0   0.49474945    1.5202976    2.0873397    4.9540725 
19515000    1.0816055 4.2019825e-05    0.4875045  0.052664967            0   0.43483953    1.6088882    2.0963927    3.5306694 
19520000    1.0501184 -4.9428669e-06   0.53561485  0.013361953            0    0.5222529    1.5620511     2.097666    1.9289495 
19525000    1.1102942 2.7939843e-05   0.45310633 0.0079847143            0   0.44512162    1.6515626     2.104669    3.0583489 
19530000    1.1107448 4.4859773e-05   0.45740183  0.025262425            0   0.43213941    1.6522329    2.1096347    3.6408483 
19535000    1.1430564 0.00012457177   0.37172289  0.015804491            0   0.35591839    1.7002965    2.0720194     6.324069 
19540000    1.0718652 8.9201628e-05   0.48033219 0.0029869035            0   0.47734529    1.5943995    2.0747317    5.1194806 
19545000    1.0412478 1.8705267e-05   0.52323184 0.0089001299            0   0.51433171     1.548856    2.0720879     2.710561 
19550000    1.1061816 9.7371391e-06   0.40657967  0.025270698            0   0.38130898    1.6454451    2.0520248    2.3843858 
19555000    1.1211765 -1.8255525e-05   0.40974302  0.023232717            0   0.38651031    1.6677501    2.0774931    1.4543712 
19560000    1.0929111 -0.00010945523   0.44334937  0.014195978            0   0.42915339    1.6257052    2.0690546   -1.6670173 
19565000    1.0602693 -6.2214787e-06   0.49415497  0.026891782            0   0.46726319    1.5771506    2.0713056    1.8589458 
19570000    1.0697518 0.00015052193   0.46950314  0.025180892            0   0.44432225    1.5912558     2.060759    7.1985742 
19575000    1.0473816 1.5761826e-05   0.47447986  0.036080147            0   0.43839972    1.5579802      2.03246    2.5704637 
19580000    1.0112528 -7.2591992e-05   0.54150663  0.038859321            0   0.50264731    1.5042385    2.0457451  -0.43206152 
19585000    1.0745657 5.8278439e-05   0.43864829  0.015947619            0   0.42270067    1.5984165    2.0370648    4.0263022 
19590000    1.0881716 1.3091993e-05   0.42539705  0.012716676            0   0.41268038    1.6186553    2.0440523    2.4909257 
19595000    1.0936466 -2.5568203e-05   0.42796862  0.032726071            0   0.39524255    1.6267994     2.054768      1.18204 
19600000    1.0036139 -3.1036194e-05   0.54227258  0.030041868            0   0.51223072    1.4928756    2.0351482   0.97577943 
19605000    1.1231137 -4.5616493e-05    0.3886967  0.029709816            0   0.35898689    1.6706317    2.0593284   0.50228544 
19610000    1.0667075 3.706621e-05   0.44843684  0.035561086            0   0.41287576    1.5867274    2.0351643    3.3003576 
19615000    1.0665075 7.7939556e-05   0.45904486   0.02105678            0   0.43798808    1.5864299    2.0454748    4.7058116 
19620000    1.0226298 0.00019830145    0.5398132  0.026864322            0   0.51294888    1.5211618     2.060975    8.8296645 
19625000    1.0489281 0.00015437699   0.50178671   0.02139791            0    0.4803888    1.5602805    2.0620672    7.3314684 
19630000    1.0205927 6.1875577e-05    0.5332487 0.0098413874            0   0.52340731    1.5181316    2.0513803       4.1634 
19635000    1.0645581 3.7423336e-05   0.47677246  0.016717422            0   0.46005504    1.5835302    2.0603026    3.3376859 
19640000   0.97988033  0.000114494   0.57987144  0.024152376            0   0.55571906     1.457572    2.0374434    5.9455053 
19645000    1.0246825  8.42306e-05   0.49965866  0.034170135            0   0.46548852    1.5242152    2.0238738     4.898945 
19650000    1.0252034 -9.3508303e-06   0.48394106  0.025608117            0   0.45833294      1.52499    2.0089311    1.6897561 
19655000   0.97426334 1.5726954e-05   0.54714927  0.013680168            0    0.5334691    1.4492167     1.996366    2.5331793 
19660000   0.94680328 0.00015079752   0.59539989   0.02872932            0   0.56667057    1.4083699    2.0037698    7.1509917 
19665000     1.071204 8.7601811e-05   0.39777138  0.025276437            0   0.37249494     1.593416    1.9911873    4.9813292 
19670000    1.0391539 -1.2580567e-05   0.47624107  0.023776078            0     0.452465    1.5457414    2.0219825    1.5925658 
19675000   0.99397768 -9.8268852e-05   0.55297518  0.015791102            0   0.53718408    1.4785418     2.031517   -1.3227265 
19680000    1.0528964 -0.00010281617   0.46990586   0.00767645            0   0.46222941    1.5661834    2.0360893   -1.4733692 
19685000    1.0586143 0.00011000003   0.44840057 0.00028979387            0   0.44811077    1.5746888    2.0230894    5.7777571 
19690000    1.0338937 0.00011296838   0.48554079 0.0044931603            0   0.48104763    1.5379169    2.0234576    5.8794451 
19695000   0.97554906 1.6621402e-05   0.53684654  0.012355967            0   0.52449058    1.4511292    1.9879758    2.5553196 
19700000    1.0303237 8.7530889e-05   0.44579601  0.015661056            0   0.43013496    1.5326065    1.9784026    4.9661236 
19705000   0.97678879 -4.9539925e-05    0.5270855  0.017855555            0   0.50922994    1.4529733    1.9800588   0.28909605 
19710000   0.96616372 -0.00017221251   0.54823336  0.037406428            0   0.51082693    1.4371685    1.9854019    -3.892785 
19715000   0.95992446 -8.3167102e-05   0.55350911  0.025243387            0   0.52826572    1.4278876    1.9813967  -0.85737368 
19720000    1.0176562 -7.2840975e-05   0.45452577  0.017531099            0   0.43699468    1.5137636    1.9682894  -0.51801592 
19725000    1.0257523 -0.00011168843   0.44903782  0.017589509            0   0.43144831    1.5258066    1.9748444   -1.8374538 
19730000   0.95835054 6.6382609e-06   0.52497083  0.027647988            0   0.49732284    1.4255464    1.9505173    2.1771032 
19735000   0.95489078 9.7885296e-05   0.49150802 0.0061299673            0   0.48537805       1.4204    1.9119081    5.2530595 
19740000   0.96369556 -4.5389988e-05    0.4483804  0.002050173            0   0.44633023    1.4334972    1.8818776   0.33256596 
19745000   0.98662969 -0.00012129832   0.42065587   0.01062145            0   0.41003442    1.4676117    1.8882675   -2.2520485 
19750000   0.83254182 -5.2730046e-05   0.64523971  0.050411819            0    0.5948279     1.238406    1.8836457  0.083793419 
19755000   0.87219641 2.1509266e-05   0.56858391   0.01541185            0   0.55317206    1.2973922    1.8659761     2.600159 
19760000   0.92751898 1.6548882e-05   0.50579056  0.013683374            0   0.49210718    1.3796845     1.885475    2.4503435 
19765000   0.93958196 5.2618894e-05   0.49754643   0.03219515            0   0.46535128    1.3976282    1.8951746    3.6912328 
19770000   0.93396189 -4.8944951e-05   0.51747223   0.02089291            0   0.49657932    1.3892683    1.9067405   0.23608622 
19775000   0.90659849 -7.5735803e-05   0.58044697  0.029952025            0   0.55049495    1.3485653    1.9290122  -0.65610319 
19780000    1.0049304 -1.8198164e-05   0.45754311  0.012646429            0   0.44489668     1.494834    1.9523771    1.3312131 
19785000   0.94966652 -3.4419221e-05   0.51213472  0.013670228            0    0.4984645     1.412629    1.9247637   0.74992094 
19790000   0.90531525 -9.0746873e-05   0.57399449  0.045688648            0   0.52830584    1.3466564    1.9206509   -1.1768424 
19795000   0.90632883 -6.4080235e-05   0.58216539  0.052355052            0   0.52981034    1.3481641    1.9303295   -0.2569425 
19800000   0.91894789 -2.5802409e-05   0.56419081  0.064196773            0   0.49999404     1.366935    1.9311258    1.0504036 
19805000   0.91735898 -1.9478659e-05   0.55538635  0.035067915            0   0.52031844    1.3645715    1.9199578    1.2550863 
19810000   0.92004392 7.5467596e-05   0.57608088  0.051053848            0   0.52502703    1.3685653    1.9446462    4.5206068 
19815000   0.97870953 6.2681277e-05   0.47836051   0.03322023            0   0.44514028    1.4558304    1.9341909    4.0737119 
19820000   0.99165465 -0.00013634313   0.47118292  0.012038882            0   0.45914404    1.4750863    1.9462692   -2.7075762 
19825000   0.97401902 -4.1028563e-05   0.51508496   0.02341624            0   0.49166872    1.4488533    1.9639382   0.56349664 
19830000   0.98808339 3.4283853e-05   0.51332065  0.035213119            0   0.47810753     1.469774    1.9830947    3.1533169 
19835000   0.98653321 -0.00011711014   0.50517279  0.018116054            0   0.48705674    1.4674681    1.9726409   -2.0247183 
19840000    1.0094619 -7.9284218e-05   0.48139866 0.0072017905            0   0.47419687    1.5015746    1.9829732  -0.72326141 
19845000    1.0006295 -2.0536335e-05   0.51337976  0.010349327            0   0.50303043    1.4884363    2.0018161    1.3008425 
19850000    1.0365997 -2.667655e-05   0.47339966 0.0051559696            0   0.46824369     1.541942    2.0153417    1.1047821 
19855000    1.0789316 -4.2963042e-05   0.39726772  0.010323292            0   0.38694443    1.6049108    2.0021785   0.53570665 
19860000   0.94751965 -6.64538e-05   0.57966433  0.020275812            0   0.55938852    1.4094355    1.9890998   -0.2791899 
19865000   0.98489567 -3.9853662e-05   0.49271639  0.014637992            0    0.4780784    1.4650323    1.9577487   0.59741038 
19870000   0.98255048 1.7088769e-05   0.51987487  0.015471539            0   0.50440333    1.4615438    1.9814187    2.5647154 
19875000   0.96052433 -0.00016496534   0.55720779  0.034333898            0    0.5228739    1.4287799    1.9859877   -3.6448291 
19880000   0.99264262 -1.8439667e-05   0.50879888  0.014724465            0   0.49407442    1.4765559    1.9853548    1.3559475 
19885000   0.97569482 -1.4803649e-05   0.52994617  0.017896117            0   0.51205005     1.451346    1.9812922    1.4759943 
19890000   0.98214917 -5.9568203e-05   0.50962197  0.090990784            0   0.41863118    1.4609469    1.9705689 -0.062692479 
19895000    1.0258206 -4.8334468e-05   0.47117574  0.035037823            0   0.43613792    1.5259082    1.9970839   0.34726742 
19900000    1.0272404 3.3637594e-05   0.48164312   0.02958136            0   0.45206176    1.5280201    2.0096632    3.1578265 
19905000     1.001762 4.2366268e-05   0.54633745  0.040650657            0   0.50568679     1.490121    2.0364585    3.4825604 
19910000    1.0210809 -1.6125032e-05   0.53388438  0.021703705            0   0.51218068    1.5188578    2.0527422    1.5023411 
19915000    1.0328104    7.754e-05    0.4978252 0.0095683801            0   0.48825682    1.5363055    2.0341307    4.6808294 
19920000    1.0373404 -2.5531116e-05   0.47063368 0.0089104179            0   0.46172326    1.5430439    2.0136775    1.1422154 
19925000   0.99720213 -0.00021816819   0.52662163 0.0072652935            0   0.51935634    1.4833382    2.0099598   -5.4368478 
19930000     1.007039 -5.9844569e-06    0.5341294 0.0059150606            0   0.52821434    1.4979705    2.0320999    1.8278305 
19935000    1.0541427 0.00010646049   0.45364738 0.0078503328            0   0.44579705    1.5680373    2.0216846    5.6555359 
19940000     0.971073 6.7050338e-05    0.5519561   0.01508357            0   0.53687253    1.4444711    1.9964272    4.2850787 
19945000    1.0103277 5.291457e-05   0.49576078  0.018303861            0   0.47745692    1.5028625    1.9986232    3.8047739 
19950000    1.0430068 5.6897364e-05   0.46654547 0.0031567141            0   0.46338875    1.5514727    2.0180182    3.9601148 
19955000    1.0044122 3.2035679e-05   0.50583618 0.0016163256            0   0.50421985    1.4940631    1.9998993    3.0933838 
19960000     1.033475 -4.7409486e-05   0.46267426  0.015928594            0   0.44674567    1.5372941    1.9999684   0.38172459 
19965000   0.96222844 -3.5289904e-05   0.55142265  0.028043721            0   0.52337893    1.4313148    1.9827375   0.77817539 
19970000   0.97330462 0.00013239718   0.52452114  0.015527678            0   0.50899346    1.4477906    1.9723118     6.491469 
19975000    1.0043002 0.0001858996   0.46253105  0.013526965            0   0.44900408    1.4938965    1.9564276    8.3018007 
19980000   0.96209704 1.5343305e-05   0.51123692  0.024902509            0   0.48633441    1.4311193    1.9423563    2.4660744 
19985000   0.96504996 -0.00012603917   0.52414523  0.033335184            0   0.49081004    1.4355118     1.959657   -2.3424798 
19990000   0.99510099 -1.9618465e-05    0.4917256  0.017666696            0    0.4740589    1.4802127    1.9719383    1.3022947 
19995000    1.0383726 0.00012554473   0.45042451 0.0049403003            0   0.44548421    1.5445792    1.9950037     6.280264 
20000000   0.98235101 1.9329083e-07   0.54607738 0.0033074698            0   0.54276991    1.4612471    2.0073245    2.0139222 
Loop time of 228.535 on 1 procs for 20000000 steps with 120 atoms

Performance: 75612.114 tau/day, 87514.021 timesteps/s
99.7% CPU use with 1 MPI tasks x no OpenMP threads

MPI task timing breakdown:
Section |  min time  |  avg time  |  max time  |%varavg| %total
---------------------------------------------------------------
Pair    | 11.651     | 11.651     | 11.651     |   0.0 |  5.10
Bond    | 34.707     | 34.707     | 34.707     |   0.0 | 15.19
Neigh   | 20.129     | 20.129     | 20.129     |   0.0 |  8.81
Comm    | 50.793     | 50.793     | 50.793     |   0.0 | 22.23
Output  | 0.6439     | 0.6439     | 0.6439     |   0.0 |  0.28
Modify  | 102.23     | 102.23     | 102.23     |   0.0 | 44.73
Other   |            | 8.375      |            |       |  3.66

Nlocal:        120.000 ave         120 max         120 min
Histogram: 1 0 0 0 0 0 0 0 0 0
Nghost:        0.00000 ave           0 max           0 min
Histogram: 1 0 0 0 0 0 0 0 0 0
Neighs:        45.0000 ave          45 max          45 min
Histogram: 1 0 0 0 0 0 0 0 0 0

Total # of neighbors = 45
Ave neighs/atom = 0.375
Ave special neighs/atom = 5.9000000
Neighbor list builds = 4098
Dangerous builds = 0
write_restart restart.equil
System init for write_restart ...
WARNING: Communication cutoff 1.4200000000000002 is shorter than a bond length based estimate of 1.8. This may lead to errors. (../comm.cpp:667)
#--------------End of Input file ------------------
Total wall time: 0:03:48
