LAMMPS (29 Oct 2020)
###################### polyelectrolyte complexation ######################
clear

#Initialization
#------------------------------------
units				lj
dimension			3
atom_style			full
boundary			p p p

#Atom Definition
#-------------------------------------
read_restart			restart.equil
Reading restart file ...
  restart file = 29 Oct 2020, LAMMPS = 29 Oct 2020
  restoring atom style full from restart
  orthogonal box = (-80.000000 -80.000000 -80.000000) to (80.000000 80.000000 80.000000)
  1 by 1 by 1 MPI processor grid
  restoring pair style lj/cut from restart
  restoring bond style harmonic from restart
  60 atoms
  59 bonds
Finding 1-2 1-3 1-4 neighbors ...
  special bond factors lj:    0.0      1.0      1.0     
  special bond factors coul:  0.0      0.0      0.0     
     2 = max # of 1-2 neighbors
     2 = max # of 1-3 neighbors
     4 = max # of 1-4 neighbors
     6 = max # of special neighbors
  special bonds CPU = 0.000 seconds
  read_restart CPU = 0.003 seconds

#Force definition
#----------------------------------------------
#Bond definition
bond_style			harmonic
bond_coeff			1 5000 1
#Pair definition
special_bonds	lj 0 1 1
dielectric		80
pair_style		 lj/cut 1.12
pair_modify 		 shift yes
pair_coeff	1 1 1 1 1.12

#Timestep etc
#--------------------------------------------
timestep		0.001
run_style		verlet
velocity		all	create	1	4

#Fix
#---------------------------------------
group polymers type 1
60 atoms in group polymers
fix 1 all nve
fix 2 all langevin 1	1	100	4

#Dump
#------------------------------------------------
compute  1 all gyration
variable  myRg2 equal c_1
variable  i equal step
fix  mythermofile all print 5000 "$i ${myRg2}" file radius_of_gyration.dat screen no

thermo_style		 custom step temp press pe evdwl ecoul ebond ke etotal enthalpy
thermo 	5000
dump	3 all custom 5000 dump.lammpstrj id mol type xu yu zu
run		2000000
Neighbor list info ...
  update every 1 steps, delay 10 steps, check yes
  max neighbors/atom: 2000, page size: 100000
  master list distance cutoff = 1.42
  ghost atom cutoff = 1.42
  binsize = 0.71, bins = 226 226 226
  1 neighbor lists, perpetual/occasional/extra = 1 0 0
  (1) pair lj/cut, perpetual
      attributes: half, newton on
      pair build: half/bin/newton
      stencil: half/bin/3d/newton
      bin: standard
WARNING: Communication cutoff 1.4200000000000002 is shorter than a bond length based estimate of 1.8. This may lead to errors. (../comm.cpp:667)
Per MPI rank memory allocation (min/avg/max) = 54.71 | 54.71 | 54.71 Mbytes
Step Temp Press PotEng E_vdwl E_coul E_bond KinEng TotEng Enthalpy 
 2000000            1 -0.00012130765   0.43871753 0.0060657727            0   0.43265176        1.475    1.9137175   -6.3675516 
 2005000    1.0173322 6.8639485e-05   0.55314253  0.013701887            0   0.53944065     1.500565    2.0537075    6.7394963 
 2010000    1.0411422 5.6635236e-05   0.49132153 0.0080250546            0   0.48329647    1.5356847    2.0270063    5.8933051 
 2015000   0.95121731 9.4250901e-06   0.61732166 0.0053225782            0   0.61199908    1.4030455    2.0203672    2.6637867 
 2020000   0.94270869 -0.00010375965    0.6197731  0.011400255            0   0.60837284    1.3904953    2.0102684   -5.0730573 
 2025000    1.0306319 1.3112829e-05   0.57440632 0.0025997843            0   0.57180653     1.520182    2.0945884    2.9897575 
 2030000   0.95825333 3.9049169e-05   0.69190508  0.023554793            0   0.66835029    1.4134237    2.1053287    4.7710854 
 2035000   0.96487541 5.7104638e-05   0.57798721  0.043124803            0   0.53486241    1.4231912    2.0011784    5.8995217 
 2040000    1.0044242 1.6233712e-05   0.44423246  0.057724181            0   0.38650828    1.4815257    1.9257582    3.0339796 
 2045000   0.98786775 -7.6214219e-05   0.48722984 1.4696063e-05            0   0.48721515    1.4571049    1.9443348   -3.2585559 
 2050000   0.95472965 -3.1565082e-05   0.52100168 0.0043877307            0   0.51661394    1.4082262    1.9292279  -0.22561501 
 2055000    0.9889026 -6.6489887e-05   0.45245355 0.00017280844            0   0.45228074    1.4586313    1.9110849    -2.627958 
 2060000     1.045593 0.00022699547    0.5619576 0.0026606978            0    0.5592969    1.5422496    2.1042072    17.600431 
 2065000    1.0751333 7.5254063e-05    0.4471042  0.036994542            0   0.41010965    1.5858215    2.0329257    7.1702698 
 2070000    0.9116512 -8.9750016e-05   0.53169854  0.015322666            0   0.51637587    1.3446855    1.8763841   -4.2505504 
 2075000   0.92918393 5.6845104e-05   0.54652155 0.0025170002            0   0.54400455    1.3705463    1.9170679    5.7976936 
 2080000   0.96817454 -5.8793005e-05   0.57642199  0.001065353            0   0.57535663    1.4280574    2.0044794    -2.009123 
 2085000   0.96265838 6.0727272e-05   0.49516179 0.0054648415            0   0.48969695    1.4199211    1.9150829    6.0607313 
 2090000    1.0769108 -2.4118423e-05   0.37393754 0.0012964572            0   0.37264108    1.5884434    1.9623809   0.31589655 
 2095000   0.95780221 3.1391593e-05   0.61808042  0.021083611            0   0.59699681    1.4127583    2.0308387    4.1738381 
 2100000    1.0237414 -9.446731e-05   0.45446584   0.01334879            0   0.44111705    1.5100186    1.9644845   -4.4844839 
 2105000   0.91791117 3.5767119e-05   0.58628397  0.010505057            0   0.57577891     1.353919    1.9402029    4.3819049 
 2110000   0.92867155 3.6600715e-05   0.52835039  0.035895786            0    0.4924546    1.3697905    1.8981409    4.3967497 
 2115000   0.97817213 5.8044359e-05   0.49363251  0.021908279            0   0.47172423    1.4428039    1.9364364    5.8989313 
 2120000    0.9744583 1.8460915e-05   0.49429077 0.0082980088            0   0.48599277     1.437326    1.9316168    3.1918819 
 2125000    1.0697348 4.2945823e-06   0.39940301  0.036231829            0   0.36317118    1.5778589    1.9772619    2.2704387 
 2130000   0.92073283 -1.3354499e-05   0.57133165  0.068845358            0   0.50248629    1.3580809    1.9294126    1.0177454 
 2135000   0.99275712 4.9829204e-05    0.5783088  0.035035019            0   0.54327378    1.4643168    2.0426256    5.4442992 
 2140000   0.94740659 -4.8271525e-05   0.56746509  0.050053389            0    0.5174117    1.3974247    1.9648898   -1.3304463 
 2145000    1.0139265 4.0989945e-05   0.48753547 0.0033210181            0   0.48421445    1.4955415     1.983077    4.7813239 
 2150000    1.1701727 7.9255622e-06   0.40099439 0.0053069181            0   0.39568747    1.7260048    2.1269992    2.6680509 
 2155000    1.1016437 -5.6275198e-05   0.50900714  0.021358283            0   0.48764886    1.6249245    2.1339316   -1.7077885 
 2160000    1.0040538 -9.6509124e-05    0.6532035  0.013237032            0   0.63996647    1.4809794    2.1341829   -4.4541733 
 2165000    1.1212406 -5.8421914e-05    0.5196285  0.045759026            0   0.47386947    1.6538299    2.1734584    -1.814811 
 2170000    1.2063074 -2.3710653e-05   0.55487686  0.027270579            0   0.52760628    1.7793035    2.3341803   0.71553311 
 2175000    1.1699397 4.8441081e-05   0.65486397  0.032506493            0   0.62235747     1.725661     2.380525    5.6874361 
 2180000    1.0586007 2.2557219e-05   0.74329433  0.078547511            0   0.66474682     1.561436    2.3047303    3.8446364 
 2185000    1.0300758 -1.0600291e-05   0.56756801  0.031885939            0   0.53568207    1.5193617    2.0869298    1.3632832 
 2190000     1.017999 1.6643252e-05   0.52974217   0.02010782            0   0.50963435    1.5015485    2.0312907      3.16747 
 2195000    1.0379839 2.930002e-05   0.48325544  0.078102731            0   0.40515271    1.5310262    2.0142817    4.0144964 
 2200000    1.0903581 -1.1393273e-05   0.54617067  0.061680749            0   0.48448992    1.6082783    2.1544489    1.3766682 
 2205000   0.98748369 2.1878796e-05   0.70385369  0.054421178            0   0.64943251    1.4565384    2.1603921    3.6539846 
 2210000    1.0596524 -1.3924472e-05   0.67754883  0.059266668            0   0.61828216    1.5629872    2.2405361    1.2899588 
 2215000     1.109135 6.2600417e-05   0.53620682  0.025408505            0   0.51079832    1.6359741    2.1721809    6.4457028 
 2220000    1.0306271 -0.00011811463   0.58983417  0.018147595            0   0.57168657    1.5201749    2.1100091   -5.9532832 
 2225000    1.1343781 3.4145236e-05   0.52633509 0.0053674844            0    0.5209676    1.6732077    2.1995428    4.5305242 
 2230000     1.219724 2.3531085e-05   0.51657709  0.070807256            0   0.44576984    1.7990928    2.3156699    3.9220587 
 2235000    1.1351067 -2.8384015e-05   0.53519646 0.0072822103            0   0.52791425    1.6742823    2.2094788   0.27179668 
 2240000    1.0966605 5.0762191e-05   0.63445156  0.076123763            0    0.5583278    1.6175742    2.2520257    5.7173913 
 2245000    1.1508271 -2.1824987e-05     0.502088  0.011291853            0   0.49079615      1.69747     2.199558   0.70963884 
 2250000    1.1510471 6.3016882e-05     0.575406  0.026852387            0   0.54855361    1.6977945    2.2732005    6.5751529 
 2255000     1.215635 3.4200041e-05   0.59326257  0.037839392            0   0.55542318    1.7930616    2.3863241    4.7210469 
 2260000    1.3333132 -5.3698937e-05   0.49388224 0.0062484124            0   0.48763383    1.9666369    2.4605191   -1.2053283 
 2265000    1.1396044 2.8707755e-05   0.76090354   0.01933598            0   0.74156756    1.6809166    2.4418201    4.4016029 
 2270000     1.047681 1.121572e-05   0.74877614  0.031205497            0   0.71757065    1.5453295    2.2941056    3.0597654 
 2275000    1.0947431 -3.7584152e-05   0.66806997  0.011443815            0   0.65662616     1.614746     2.282816  -0.28292874 
 2280000    1.1490308 8.9323744e-07   0.54891905   0.04398218            0   0.50493687    1.6948204    2.2437395    2.3047178 
 2285000    1.1827439 5.5644185e-05   0.58428448  0.026129475            0   0.55815501    1.7445472    2.3288317    6.1274747 
 2290000   0.97547917 -0.00011459701   0.72549697 0.0026866991            0   0.72281027    1.4388318    2.1643287   -5.6588269 
 2295000    1.1322885 -9.964908e-05   0.57099139  0.019185208            0   0.55180618    1.6701256     2.241117   -4.5615935 
 2300000    1.2097639 5.3788144e-05   0.48083281  0.005102292            0   0.47573051    1.7844018    2.2652346    5.9371719 
 2305000    1.1046058 0.00014152598   0.65276072 0.0083879085            0   0.64437281    1.6292936    2.2820543    11.943561 
 2310000    1.1648832 0.00013670283   0.65892404  0.024387472            0   0.63453657    1.7182027    2.3771267    11.709374 
 2315000    1.2344146 -0.00012595379    0.5606448   0.01155884            0   0.54908596    1.8207615    2.3814063   -6.2170394 
 2320000    1.1867773 -1.7462009e-05   0.65868045  0.098434869            0   0.56024558    1.7504965     2.409177    1.2171038 
 2325000    1.1529816 4.9188047e-05   0.70963887   0.10803801            0   0.60160086    1.7006479    2.4102867    5.7681907 
 2330000    1.1964116 -4.0260792e-05   0.69553121  0.029839401            0   0.66569181    1.7647071    2.4602383  -0.28823178 
 2335000    1.2024903 6.8936274e-05   0.65727891 0.00021628905            0   0.65706262    1.7736732    2.4309521    7.1370017 
 2340000    1.2783887 3.6932998e-06   0.64351992 0.0066351541            0   0.63688477    1.8856233    2.5291432    2.7812725 
 2345000    1.3039802 -3.5506058e-05   0.55250404 0.0063193288            0   0.54618471    1.9233709    2.4758749  0.051994669 
 2350000    1.2132113 -1.517402e-05   0.64044972   0.01407393            0   0.62637579    1.7894867    2.4299364    1.3940567 
 2355000    1.1867972 -2.7777457e-05   0.68596711  0.036587399            0   0.64937971    1.7505259    2.4364931   0.54021866 
 2360000    1.2951647 -5.5974046e-05   0.50616569 0.0095241767            0   0.49664151    1.9103679    2.4165336   -1.4046279 
 2365000    1.2297534 4.1916344e-05   0.45969804  0.029398474            0   0.43029957    1.8138862    2.2735843    5.1350733 
 2370000    1.1866937 2.8494274e-05   0.68284675   0.02349556            0    0.6593512    1.7503732      2.43322     4.378429 
 2375000    1.2731924 6.7290229e-05   0.60928693 0.0095079529            0   0.59977898    1.8779587    2.4872457    7.0809253 
 2380000    1.2939925 -7.9800044e-05   0.57706819  0.014549073            0   0.56251911     1.908639    2.4857071   -2.9619759 
 2385000    1.3267993 -5.4710964e-05   0.47498003 0.0010165251            0    0.4739635    1.9570289    2.4320089   -1.3029262 
 2390000    1.3064449 -5.39958e-05    0.6317151  0.033692995            0   0.59802211    1.9270063    2.5587214   -1.1273919 
 2395000    1.1648887 -7.8022092e-05   0.74474822 0.0010451958            0   0.74370303    1.7182109    2.4629591    -2.863349 
 2400000    1.2140803 5.7028608e-05    0.5145522  0.010094274            0   0.50445792    1.7907684    2.3053206    6.1984736 
 2405000    1.2281441 -3.3999132e-05   0.50694893  0.030671902            0   0.47627702    1.8115125    2.3184614 -0.0025460287 
 2410000    1.1803308 2.5190643e-05   0.56126411  0.075606843            0   0.48565727    1.7409879    2.3022521    4.0219333 
 2415000    1.0732754 -2.5886776e-05   0.55774158   0.04717338            0    0.5105682    1.5830812    2.1408228   0.37361886 
 2420000    1.0477659 3.3022606e-05   0.51467557  0.068571336            0   0.44610424    1.5454548    2.0601303    4.3144736 
 2425000    1.0932717 -7.9729605e-05   0.51115004  0.043173158            0   0.46797689    1.6125758    2.1237258   -3.3191486 
 2430000    1.0710514 5.7231168e-05   0.51601306  0.012870331            0   0.50314273    1.5798009    2.0958139     6.002795 
 2435000    1.1394217 -3.5299108e-06   0.46305928  0.023178493            0   0.43988079    1.6806471    2.1437064    1.9027311 
 2440000    1.1423213 7.3157773e-06   0.47212624 0.0038522913            0   0.46827395    1.6849239    2.1570501    2.6564738 
 2445000    1.1319921 -8.2668942e-05   0.46034984 0.0058766991            0   0.45447314    1.6696883    2.1300381    -3.513495 
 2450000    1.1268829 1.5542751e-05   0.48085176  0.040804862            0    0.4400469    1.6621523     2.143004    3.2040558 
 2455000    1.0415094 6.7615694e-05   0.71051361   0.10052329            0   0.60999031    1.5362263    2.2467399     6.862638 
 2460000    1.1932343 0.00012153385    0.5412968 0.0089665642            0   0.53233023    1.7600206    2.3013174    10.598028 
 2465000    1.1319007 4.3990787e-05   0.41389326  0.012997728            0   0.40089554    1.6695535    2.0834468    5.0865512 
 2470000    1.0776541 3.6313824e-05    0.5822347  0.058199876            0   0.52403482    1.5895398    2.1717745    4.6507982 
 2475000     1.137262 0.00016393226   0.51009362  0.025451569            0   0.48464205    1.6774614     2.187555    13.378664 
 2480000    1.1978008 -7.7248772e-05   0.39790442 0.0076669285            0   0.39023749    1.7667562    2.1646607   -3.1088555 
 2485000    1.0911925 -4.9423661e-05   0.53713227 0.0078878519            0   0.52924442    1.6095089    2.1466412   -1.2273473 
 2490000    1.1832294 -1.8859779e-05    0.4885596  0.015096802            0   0.47346279    1.7452634     2.233823   0.94632875 
 2495000    1.1552347 -3.7120273e-05   0.53009619  0.020948698            0   0.50914749    1.7039712    2.2340674  -0.30000985 
 2500000    1.1782134 8.0551626e-05   0.51994812    0.0197145            0   0.50023362    1.7378647    2.2578129    7.7568039 
 2505000    1.1393781 9.0691183e-05   0.41780256 0.00075711474            0   0.41704545    1.6805827    2.0983852      8.28957 
 2510000    1.1164481 6.6712021e-05     0.388506 4.5720133e-05            0   0.38846028    1.6467609    2.0352669    6.5894742 
 2515000   0.99541387 -2.9020942e-05   0.48340148  0.016595736            0   0.46680574    1.4682355    1.9516369 -0.029526066 
 2520000    1.0320572 -3.0075862e-05   0.44135005 0.0034449192            0   0.43790513    1.5222844    1.9636344 -0.089544393 
 2525000    1.0981243 6.9820992e-05    0.3815222 0.0085974278            0   0.37292477    1.6197334    2.0012556     6.767702 
 2530000   0.97202633 1.1698901e-05   0.60478372  0.038773664            0   0.56601005    1.4337388    2.0385226    2.8371675 
 2535000    1.0473562 -7.2783498e-06   0.42856151  0.010774517            0   0.41778699    1.5448503    1.9734119    1.4765432 
 2540000    1.1375306 -4.9704204e-05   0.42162409 0.00062399077            0    0.4210001    1.6778577    2.0994818   -1.2936586 
 2545000    1.0933109 -2.6560288e-05    0.4397723  0.051701309            0   0.38807099    1.6126336    2.0524059   0.23922357 
 2550000    1.0509686 -7.0120956e-05   0.53104002  0.051621333            0   0.47941868    1.5501786    2.0812187   -2.7057053 
 2555000    1.0189918 -5.8776287e-05   0.47495151 0.0081449904            0   0.46680652    1.5030129    1.9779644   -2.0344968 
 2560000     1.035444 4.8922341e-05   0.48151877  0.041700882            0   0.43981788      1.52728    2.0087987    5.3485639 
 2565000    1.0182314 -5.5825878e-05   0.51897944  0.023881418            0   0.49509803    1.5018913    2.0208707   -1.7901759 
 2570000    0.9469065 -5.1629472e-05   0.62887114  0.030593528            0   0.59827761    1.3966871    2.0255582   -1.4990137 
 2575000     1.011761 4.5765435e-05   0.47624785 0.0096465647            0   0.46660129    1.4923475    1.9685953     5.092849 
 2580000   0.94761924  8.45363e-05   0.45361856  0.049466615            0   0.40415195    1.3977384    1.8513569    7.6223683 
 2585000    1.0374359 0.00014204256   0.32507414 0.0078823126            0   0.31719182    1.5302179     1.855292    11.552064 
 2590000    1.0031914 -1.4161454e-05   0.37794188  0.011109253            0   0.36683263    1.4797073    1.8576492   0.89089397 
 2595000   0.85884744 3.589697e-05    0.6230082   0.03210125            0   0.59090695       1.2668    1.8898082    4.3403747 
 2600000   0.91974336 -3.6071363e-07   0.56866673  0.012159634            0   0.55650709    1.3566215    1.9252882    1.9006635 
 2605000   0.91056376  1.37478e-05   0.51630816   0.02201489            0   0.49429327    1.3430816    1.8593897    2.7979062 
 2610000   0.92498475 -9.3126389e-05   0.39902769 0.00015878083            0   0.39886891    1.3643525    1.7633802    -4.594048 
 2615000   0.89201829 -9.2049659e-05   0.40667829  0.011475197            0   0.39520309     1.315727    1.7224053   -4.5615181 
 2620000   0.86110286 4.7020614e-05   0.47735807  0.037770209            0   0.43958786    1.2701267    1.7474848    4.9574254 
 2625000   0.96638438 -3.8057585e-05   0.50067754 0.0031254208            0   0.49755212     1.425417    1.9260945  -0.67196997 
 2630000   0.97634664 5.1927059e-06   0.52759093  0.010656747            0   0.51693418    1.4401113    1.9677022    2.3221909 
 2635000    1.0532125 -7.3062131e-05   0.39328842 0.0064430794            0   0.38684535    1.5534884    1.9467769   -3.0409313 
 2640000   0.98452606 -6.2230806e-05   0.51831214  0.022992342            0   0.49531979    1.4521759    1.9704881   -2.2778016 
 2645000    1.0473058 7.3163224e-05   0.46717024  0.023613482            0   0.44355675     1.544776    2.0119462    7.0065557 
 2650000   0.96040342 -2.826737e-05   0.60571042  0.009494616            0    0.5962158     1.416595    2.0223055  0.092586366 
 2655000    1.0928603 -9.5487439e-06   0.42189134  0.011770104            0   0.41012124     1.611969    2.0338604    1.3819994 
 2660000   0.99468126 0.00016253365   0.50059987 0.0010745162            0   0.49952536    1.4671549    1.9677547    13.063385 
 2665000   0.88343749 0.00010771862   0.66378786   0.05528238            0   0.60850548    1.3030703    1.9668582    9.3204492 
 2670000    0.9590878 -9.6339833e-05   0.56302991  0.046104268            0   0.51692564    1.4146545    1.9776844   -4.5991149 
 2675000    0.8889783 -2.3734478e-05   0.63697812  0.063345429            0   0.57363269     1.311243    1.9482211   0.32794745 
 2680000    1.0217151 5.3054301e-05   0.47830276  0.024923496            0   0.45337926    1.5070297    1.9853325    5.6071728 
 2685000   0.97100357 -3.0097981e-06   0.55285684 0.0031279151            0   0.54972892    1.4322303    1.9850871    1.7796182 
 2690000   0.90997946 -0.00014147911   0.56309229  0.030362894            0   0.53272939    1.3422197     1.905312   -7.7529956 
 2695000   0.88654301 0.00012280143   0.49534929 0.0070912085            0   0.48825808    1.3076509    1.8030002    10.186244 
 2700000   0.82370664 -6.7145425e-06   0.57196836  0.013382639            0   0.55858572    1.2149673    1.7869356    1.3285562 
 2705000   0.98601032 2.8517549e-05   0.42155565  0.029797284            0   0.39175837    1.4543652    1.8759209    3.8227189 
 2710000   0.95941018 5.1453236e-05   0.45401458 0.0033199178            0   0.45069466      1.41513    1.8691446    5.3816855 
 2715000   0.96266601 7.897496e-05   0.41307785 0.00086388861            0   0.41221396    1.4199324    1.8330102    7.2243675 
 2720000   0.84363828 -3.7248337e-05   0.55099572 0.0068451768            0   0.54415054    1.2443665    1.7953622  -0.74745762 
 2725000    0.8954894 9.5900524e-05   0.53741391  0.012049238            0   0.52536467    1.3208469    1.8582608    8.4050699 
 2730000   0.81315081 -0.00013370312   0.56752238 0.0037785683            0   0.56374381    1.1993974    1.7669198   -7.3605468 
 2735000   0.76420087 -4.3693767e-05   0.45770852  0.012888018            0    0.4448205    1.1271963    1.5849048    -1.397923 
 2740000   0.83953264 4.4396914e-05   0.42723478  0.003081446            0   0.42415333    1.2383106    1.6655454    4.6963747 
 2745000   0.84974271 7.4011827e-05   0.44393755  0.055248661            0   0.38868889    1.2533705     1.697308    6.7498488 
 2750000   0.84007546 8.2323091e-05    0.4779364  0.023405323            0   0.45453108    1.2391113    1.7170477    7.3369707 
 2755000   0.86960706 2.9790996e-05   0.41967286  0.018935422            0   0.40073744    1.2826704    1.7023433    3.7360753 
 2760000   0.84695033 9.7767329e-05   0.52219251  0.020400367            0   0.50179215    1.2492517    1.7714443    8.4456939 
 2765000   0.82458296 4.172277e-05   0.59254786 0.0034387424            0   0.58910912    1.2162599    1.8088077    4.6570822 
 2770000   0.89739723 -5.6395027e-05   0.48531591  0.041925319            0   0.44339059    1.3236609    1.8089768   -2.0409237 
 2775000   0.87892674 1.0862321e-06   0.52879343 0.0029126272            0    0.5258808    1.2964169    1.8252104    1.8993638 
 2780000   0.80583512 -7.6671445e-05   0.57864132 0.0026945771            0   0.57594675    1.1886068    1.7672481   -3.4668558 
 2785000   0.77321809 1.7386413e-05   0.58426092 0.0036276019            0   0.58063332    1.1404967    1.7247576      2.91167 
 2790000   0.85731351 -1.1104746e-06   0.50037052  0.005817378            0   0.49455314    1.2645374     1.764908    1.6890996 
 2795000   0.85727255 -2.1813643e-05   0.57766195 0.0073704858            0   0.57029147     1.264477     1.842139   0.35299424 
 2800000   0.88296602 6.8122002e-05   0.47134503  0.011679781            0   0.45966525    1.3023749    1.7737199    6.4241819 
 2805000   0.95799163 6.2293041e-05   0.38801022  0.014173242            0   0.37383698    1.4130377    1.8010479    6.0535861 
 2810000   0.91247284 -7.8146806e-05   0.49697266 3.295741e-05            0    0.4969397    1.3458974    1.8428701   -3.4919519 
 2815000   0.86707693 9.4214204e-07   0.52874459  0.010835101            0   0.51790948    1.2789385    1.8076831        1.872 
 2820000    1.0188696 8.4647708e-05   0.41375739  0.014083109            0   0.39967428    1.5028326      1.91659    7.6952069 
 2825000   0.95257427 7.1713782e-05   0.43645307 0.0081889419            0   0.42826412     1.405047    1.8415001     6.737161 
 2830000   0.81822418 0.0001166954   0.62132478  0.017180812            0   0.60414397    1.2068807    1.8282055    9.7946112 
 2835000   0.91034671 -3.1079741e-05   0.53001163  0.013412213            0   0.51659941    1.3427614     1.872773  -0.24893727 
 2840000    1.0228687 4.5776357e-05   0.43459026   0.01765702            0   0.41693324    1.5087314    1.9433216    5.0683209 
 2845000   0.98075224 4.1414346e-05   0.53772678  0.018272904            0   0.51945388    1.4466095    1.9843363    4.8115557 
 2850000    1.0885684 -0.00016791732   0.43579512   0.01355774            0   0.42223738    1.6056384    2.0414335   -9.4217226 
 2855000    0.9393859 -4.170302e-05   0.66312195  0.030885313            0   0.63223663    1.3855942    2.0487161  -0.79821003 
 2860000   0.93086142 1.8749652e-05   0.62555318  0.056622313            0   0.56893087    1.3730206    1.9985738    3.2785501 
 2865000    1.0167402 6.8727518e-05   0.50320529  0.033679518            0   0.46952577    1.4996917     2.002897    6.6946956 
 2870000    0.9294191 -5.0775047e-05   0.64625944  0.066018339            0    0.5802411    1.3708932    2.0171526   -1.4490906 
 2875000   0.97263201 1.638624e-05   0.54747868  0.048721189            0   0.49875749    1.4346322    1.9821109    3.1007449 
 2880000   0.89225785 2.1522793e-05   0.62178419  0.019874572            0   0.60190962    1.3160803    1.9378645    3.4071539 
 2885000   0.93689161 -8.4817447e-06   0.55477742  0.093090973            0   0.46168644    1.3819151    1.9366925    1.3576721 
 2890000    0.8760837 -8.2437004e-05   0.62731592  0.032431877            0   0.59488404    1.2922235    1.9195394   -3.7081601 
 2895000   0.88932303 -4.4065873e-06   0.51479494  0.037586691            0   0.47720825    1.3117515    1.8265464    1.5257234 
 2900000   0.78829738 5.1473213e-05   0.66636566  0.025957482            0   0.64040817    1.1627386    1.8291043     5.343009 
 2905000   0.96317619 -0.0001477204   0.52438587  0.014567658            0   0.50981821    1.4206849    1.9450707   -8.1393082 
 2910000   0.91404034 -3.2726148e-05   0.57094705 0.00079675704            0   0.57015029    1.3482095    1.9191566  -0.31494849 
 2915000   0.98026616 -2.0858375e-05   0.56604853  0.011904251            0   0.55414428    1.4458926    2.0119411   0.58800937 
 2920000   0.92294767 -4.8393226e-05   0.56950375  0.020881245            0   0.54862251    1.3613478    1.9308516   -1.3727927 
 2925000   0.86448096 6.1551357e-05   0.64723276  0.027869409            0   0.61936335    1.2751094    1.9223422    6.1242481 
 2930000   0.91176921 0.0001346254   0.57326314   0.01389971            0   0.55936344    1.3448596    1.9181227     11.10855 
 2935000   0.92200022 5.6877853e-05   0.59800727 0.0019160272            0   0.59609125    1.3599503    1.9579576     5.840819 
 2940000    0.8725349 -5.9060783e-05   0.58392192  0.021755584            0   0.56216634     1.286989    1.8709109   -2.1609719 
 2945000   0.88087397 -0.00010433585   0.62085737   0.01723164            0   0.60362573    1.2992891    1.9201465   -5.2025141 
 2950000   0.90240611 -7.2072512e-05    0.5652251  0.016378039            0   0.54884706     1.331049    1.8962741   -3.0238761 
 2955000   0.91238793 1.3306819e-05    0.6026446 0.0048885758            0   0.59775603    1.3457722    1.9484168    2.8568289 
 2960000    0.9936295 2.5312765e-05   0.46835809  0.031035722            0   0.43732237    1.4656035    1.9339616    3.6619797 
 2965000      1.03099 9.1733881e-05   0.49273361 0.0091820878            0   0.48355152    1.5207103    2.0134439    8.2758102 
 2970000   0.99344825 3.6477729e-06   0.51006124 0.0073461125            0   0.50271512    1.4653362    1.9753974    2.2244187 
 2975000   0.94242132 3.4456525e-05   0.58847564  0.034191302            0   0.55428434    1.3900714    1.9785471    4.3307792 
 2980000   0.99970806 -4.9612369e-06   0.52881456 0.0015341155            0   0.52728045    1.4745694     2.003384    1.6646968 
 2985000    1.0036246 1.0536507e-05   0.48426796  0.017118951            0   0.46714901    1.4803463    1.9646142    2.6839064 
 2990000   0.89871232 4.9481338e-05   0.57478532  0.022014017            0    0.5527713    1.3256007     1.900386     5.278312 
 2995000   0.97377915 -7.9377098e-05   0.48005519 0.0054279723            0   0.47462722    1.4363242    1.9163794   -3.5024305 
 3000000   0.82694999 5.8476744e-05   0.64898437  0.086515309            0   0.56246906    1.2197512    1.8687356     5.860748 
 3005000   0.88067582 6.9130596e-05   0.56480998   0.02224317            0   0.54256681    1.2989968    1.8638068    6.5831222 
 3010000   0.94171623 4.588302e-05   0.50582415  0.020968338            0   0.48485582    1.3890314    1.8948556    5.0271364 
 3015000    1.0008654 6.1951572e-05   0.50086719            0            0   0.50086719    1.4762765    1.9771436     6.206371 
 3020000   0.97483191 2.6692464e-06   0.57461148  0.090174795            0   0.48443668    1.4378771    2.0124885    2.1947091 
 3025000   0.99318306 2.7827635e-05   0.47053035 0.0055510253            0   0.46497932     1.464945    1.9354754    3.8351752 
 3030000   0.94394064 -1.109877e-06    0.4918681  0.058465701            0    0.4334024    1.3923124    1.8841805    1.8084129 
 3035000   0.90479767 -1.8849839e-05   0.54198763  0.030683503            0   0.51130413    1.3345766    1.8765642   0.58974851 
 3040000    1.0265896 -2.5241277e-05   0.39085712 0.0066483611            0   0.38420876    1.5142196    1.9050768   0.18193892 
 3045000    1.0268615 1.6816451e-05   0.40311422  0.028197738            0   0.37491648    1.5146207    1.9177349    3.0657379 
 3050000   0.94805443 -0.00010635814    0.4703374  0.026733505            0   0.44360389    1.3983803    1.8687177   -5.3919982 
 3055000   0.94547363 5.0705521e-05   0.51546296  0.074678157            0    0.4407848    1.3945736    1.9100366    5.3715334 
 3060000   0.95142068 6.946469e-06   0.49756366  0.030371532            0   0.46719213    1.4033455    1.9009092    2.3751215 
 3065000    0.9641702 -2.2648114e-05   0.40056099 0.00015960719            0   0.40040138     1.422151     1.822712   0.27660077 
 3070000   0.85463047 -4.6966364e-05   0.50270763  0.045227301            0   0.45748033    1.2605799    1.7632876   -1.4429495 
 3075000   0.91715136 9.0991426e-06   0.42178563  0.046320951            0   0.37546468    1.3527983    1.7745839     2.395752 
 3080000    1.0645074 4.2896409e-05   0.32597683 0.0031620153            0   0.32281481    1.5701485    1.8961253    4.8245202 
 3085000   0.95239938 3.6530189e-05   0.48894861 0.0041188283            0   0.48482979    1.4047891    1.8937377    4.3875319 
 3090000    1.0296372 1.3244095e-06   0.46185354  0.019792806            0   0.44206073    1.5187149    1.9805684    2.0709814 
 3095000   0.99255312 -0.00012131769   0.53626447 0.0097997632            0   0.52646471    1.4640159    2.0002803   -6.2816741 
 3100000    1.0768912 -0.00011198269   0.50778749  0.050426272            0   0.45736121    1.5884145     2.096202   -5.5484827 
 3105000    1.0403595 -1.0888009e-05   0.38737201  0.015326536            0   0.37204548    1.5345303    1.9219023    1.1786142 
 3110000    1.0107517 -2.2682883e-05   0.36730873 0.0014293365            0   0.36587939    1.4908587    1.8581674   0.30968261 
 3115000   0.94056374 -3.793371e-05   0.42726623  0.016804525            0    0.4104617    1.3873315    1.8145977  -0.77501018 
 3120000   0.97857431 2.6598947e-05   0.48177275  0.053454145            0   0.42831861    1.4433971    1.9251699    3.7409913 
 3125000    1.1155776 1.739521e-05   0.36376253  0.005413108            0   0.35834942    1.6454769    2.0092395    3.1967525 
 3130000   0.95299014 7.3506394e-05    0.4482293  0.014289835            0   0.43393946    1.4056605    1.8538897    6.8719263 
 3135000   0.93748327 4.7623489e-05   0.45918466 0.0094134529            0    0.4497712    1.3827878    1.8419725    5.0930694 
 3140000   0.89028332 -4.2806702e-05   0.51381018  0.026208856            0   0.48760132    1.3131679    1.8269781   -1.0952928 
 3145000   0.88916921 -5.3880776e-05    0.5051902  0.013507163            0   0.49168304    1.3115246    1.8167148   -1.8615462 
 3150000   0.83644927 -4.5345049e-05    0.4979952 0.0034309946            0    0.4945642    1.2337627    1.7317579   -1.3637975 
 3155000   0.76023729 9.9414531e-05   0.57766487  0.016338896            0   0.56132597      1.12135    1.6990149    8.4857135 
 3160000   0.89111382 9.9652661e-05   0.44105361 0.00084195665            0   0.44021165    1.3143929    1.7554465    8.5584015 
 3165000   0.91013167 0.0001112128   0.47984734 0.0053951888            0   0.47445215    1.3424442    1.8222916     9.414419 
 3170000   0.97761556 -0.00011843351   0.51534613 7.7094317e-05            0   0.51526904    1.4419829    1.9573291   -6.1277317 
 3175000   0.96599199 -6.8734532e-05   0.41029001 0.0031349451            0   0.40715507    1.4248382    1.8351282   -2.8571492 
 3180000    1.0542688 0.00012302427    0.4015869  0.018336128            0   0.38325077    1.5550464    1.9566333     10.35509 
 3185000    1.1034308 -1.0496506e-05   0.49368195  0.018146419            0   0.47553553    1.6275604    2.1212423    1.4046809 
 3190000    1.0345949 9.1483006e-06   0.57507232 0.0016284067            0   0.57344391    1.5260274    2.1010998    2.7256238 
 3195000    1.0424841 5.8369809e-05   0.61451919  0.023827522            0   0.59069167    1.5376641    2.1521833    6.1368956 
 3200000    1.0205391 2.2290408e-05   0.61921067 0.0075511359            0   0.61165954    1.5052951    2.1245058    3.6461977 
 3205000   0.97615289 -0.00013821801   0.50597633 0.0089868068            0   0.49698953    1.4398255    1.9458018    -7.489881 
 3210000    1.0374379 -5.9305918e-05   0.49263789  0.015743369            0   0.47689452    1.5302209    2.0228588   -2.0257586 
 3215000    1.0371958 -6.5972505e-05   0.55862289    0.0449617            0   0.51366119    1.5298638    2.0884866   -2.4152364 
 3220000    1.0866396 4.2626009e-05   0.59292774 0.00063898325            0   0.59228875    1.6027934    2.1957211    5.1056566 
 3225000    1.1398358 2.0309243e-05   0.48581073  0.021705633            0   0.46410509    1.6812578    2.1670685    3.5535128 
 3230000    1.0886636 6.6879709e-05   0.68151507 0.0014895323            0   0.68002554    1.6057788    2.2872939    6.8529487 
 3235000    1.1095326 5.3920346e-05   0.71636113 9.4688224e-05            0   0.71626644    1.6365606    2.3529217     6.033884 
 3240000    1.2028252 4.4794447e-05   0.50393386 0.0062529468            0   0.49768092    1.7741672    2.2781011    5.3360687 
 3245000   0.95920948 5.8302799e-06   0.79469394  0.041194966            0   0.75349897     1.414834    2.2095279    2.6075417 
 3250000   0.98908521 7.4186851e-05   0.74877169  0.015411056            0   0.73336063    1.4589007    2.2076724    7.2721614 
 3255000    1.0942648 -5.2127269e-05   0.57140201  0.056162017            0   0.51523999    1.6140405    2.1854425   -1.3731124 
 3260000    1.0293027 -4.975808e-05   0.63765181  0.017340902            0   0.62031091    1.5182215    2.1558733    -1.240945 
 3265000    1.0766025 -5.4306825e-05   0.57572644    0.0484491            0   0.52727734    1.5879887    2.1637151   -1.5436308 
 3270000    1.1447467 5.8321618e-05   0.48567832 0.0031949694            0   0.48248335    1.6885014    2.1741797    6.1556022 
 3275000    1.0267485 1.0852636e-05   0.57176994  0.033188821            0   0.53858112    1.5144541     2.086224    2.8270973 
 3280000    1.0017995 1.7142875e-06   0.66439776    0.0151773            0   0.64922046    1.4776543     2.142052    2.2590807 
 3285000    1.0337729 -8.8569562e-05   0.53319681  0.036937426            0   0.49625938     1.524815    2.0580118   -3.9883369 
 3290000    1.0310194 1.3687487e-05   0.60103357 0.0016518596            0   0.59938171    1.5207537    2.1217872    3.0561863 
 3295000    1.0793329 0.00011894238     0.525206 0.0067084641            0   0.51849754    1.5920161    2.1172221    10.237022 
 3300000    1.0228122 7.5156873e-05   0.66849394 0.0038573315            0   0.66463661     1.508648    2.1771419    7.3078511 
 3305000    1.0617321 2.6612302e-05   0.68854785            0            0   0.68854785    1.5660548    2.2546026    4.0713358 
 3310000    1.0566954 7.8611443e-05     0.613049 0.0028074246            0   0.61024157    1.5586256    2.1716746    7.5382158 
 3315000   0.95957356 -7.2594725e-05   0.68073409 0.0052877903            0    0.6754463     1.415371    2.0961051   -2.8596948 
 3320000   0.93065312 7.4152811e-05   0.69284927   0.01787781            0   0.67497145    1.3727134    2.0655626    7.1277278 
 3325000    1.0614143 5.4291483e-05   0.53417554  0.056169199            0   0.47800634    1.5655861    2.0997616    5.8060602 
 3330000   0.99741689 -7.4287889e-05   0.71351115 0.0041755965            0   0.70933555    1.4711899    2.1847011   -2.8866855 
 3335000    1.0284974 -0.00012758908   0.60975699 0.0069810293            0   0.60277596    1.5170336    2.1267906   -6.5832908 
 3340000    1.0501162 9.7868592e-05   0.57065761  0.029945956            0   0.54071165    1.5489214     2.119579    8.8007416 
 3345000   0.90431548 -1.1402504e-05   0.78589906 0.0095203484            0   0.77637871    1.3338653    2.1197644    1.3413534 
 3350000    1.0254137 -5.4615266e-05   0.51372717 0.0090358304            0   0.50469134    1.5124853    2.0262124   -1.7021897 
 3355000   0.98058858 6.5832142e-05   0.54806186 6.8416457e-05            0   0.54799344    1.4463682      1.99443    6.4885709 
 3360000   0.91359445 0.00013813016   0.62091319  0.026338413            0   0.59457478    1.3475518     1.968465    11.398151 
 3365000    1.0854049 1.3759463e-05   0.51991643  0.028074314            0   0.49184212    1.6009722    2.1208886    3.0602013 
 3370000    1.0101238 -0.00015317786   0.63906672  0.016756821            0    0.6223099    1.4899326    2.1289993   -8.3279423 
 3375000    1.0417935 -7.5830614e-05   0.61802356  0.028579754            0   0.58944381    1.5366454    2.1546689   -3.0220343 
 3380000    1.1603794 -0.00011544877   0.53891448 0.0065857141            0   0.53232877    1.7115597    2.2504741   -5.6308285 
 3385000    1.0461431 9.7580944e-06   0.68451669  0.020062148            0   0.66445454    1.5430611    2.2275778    2.8937304 
 3390000    1.1517092 -0.00011298035   0.63259249  0.015173769            0   0.61741873    1.6987711    2.3313636   -5.3814283 
 3395000    1.1566987 -5.1052928e-05   0.49741458 0.0055008219            0   0.49191376    1.7061306    2.2035452    -1.281668 
 3400000    1.1921817 8.0695621e-05   0.49257602  0.033273785            0   0.45930224     1.758468    2.2510441    7.7598651 
 3405000    1.0495699 -2.8911348e-05   0.67102801  0.020292217            0   0.65073579    1.5481156    2.2191436   0.24546225 
 3410000    1.0240227 -8.3843645e-05   0.67532035  0.028974702            0   0.64634565    1.5104335    2.1857538   -3.5379723 
 3415000    1.0128286 -9.418641e-05   0.56262595 0.0067580601            0   0.55586789    1.4939222    2.0565482   -4.3732441 
 3420000   0.96264269 1.8084241e-05   0.67765685  0.076477444            0   0.60117941     1.419898    2.0975548    3.3321056 
 3425000     1.039899 0.00014691897   0.56142449 0.0095520112            0   0.55187248     1.533851    2.0952755    12.124944 
 3430000    1.0182693 4.2417912e-05   0.52725128 0.0010114786            0    0.5262398    1.5019472    2.0291985    4.9249279 
 3435000   0.93333634 -9.7816536e-05   0.59340754   0.00545399            0   0.58795355    1.3766711    1.9700786   -4.7075302 
 3440000    0.9565598 -0.0001061726   0.61356487  0.010836087            0   0.60272878    1.4109257    2.0244906   -5.2235587 
 3445000    1.0256091 4.6806724e-08   0.54035047  0.014256549            0   0.52609392    1.5127734    2.0531239    2.0563192 
 3450000    1.0558752 0.00012404234   0.53041512 0.00056057933            0   0.52985454    1.5574159     2.087831    10.555788 
 3455000     1.064436 0.00011946928   0.54548725  0.034541033            0   0.51094621    1.5700431    2.1155304      10.2713 
 3460000    1.0695233 -5.2395142e-05   0.64832226 0.0078440377            0   0.64047822    1.5775469    2.2258692   -1.3509725 
 3465000   0.99553527 5.9321748e-05   0.79892069  0.051632977            0   0.74728771    1.4684145    2.2673352    6.3170332 
 3470000    1.1358386 -7.873862e-06   0.54342949  0.013600938            0   0.52982855     1.675362    2.2187915    1.6812692 
 3475000    1.0292709 -2.3021329e-05   0.60198488   0.01024143            0   0.59174345    1.5181746    2.1201595   0.54857007 
 3480000    1.0469555 -9.0301646e-06   0.52323426 0.0094837781            0   0.51375048    1.5442594    2.0674936    1.4510344 
 3485000   0.98824009 -8.3382976e-05   0.63320003  0.012804581            0   0.62039545    1.4576541    2.0908542   -3.6014237 
 3490000    1.1586284 9.3896866e-06   0.41417552  0.027987108            0   0.38618841    1.7089769    2.1231524     2.764155 
 3495000    1.0994443 -0.00012937997   0.48913854            0            0   0.48913854    1.6216803    2.1108189   -6.7215204 
 3500000    1.1892772 8.5575383e-05   0.39684141  0.021928417            0   0.37491299    1.7541839    2.1510253    7.9929715 
 3505000    1.0834355   4.5498e-05    0.5094705 0.0076926117            0   0.50177788    1.5980673    2.1075378    5.2135347 
 3510000    1.0658375 1.5491439e-05   0.54308096 0.0023219427            0   0.54075902    1.5721103    2.1151912    3.1727401 
 3515000    1.1038949 2.051032e-06   0.50111089 0.0033639291            0   0.49774696     1.628245    2.1293559     2.269373 
 3520000   0.98017773 0.00012504997   0.68690493  0.049085606            0   0.63781933    1.4457622    2.1326671    10.669412 
 3525000    1.1535269 3.0028299e-05   0.45946735  0.010420936            0   0.44904641    1.7014522    2.1609196    4.2108515 
 3530000    1.3197542 -3.8957244e-05   0.37089792 6.8388676e-05            0   0.37082953    1.9466374    2.3175353  -0.34194585 
 3535000    1.2331201 -1.4121813e-05   0.50395933  0.023015658            0   0.48094367    1.8188522    2.3228115    1.3587624 
 3540000    1.0343508 -6.4572208e-05   0.66892628  0.032470762            0   0.63645552    1.5256674    2.1945937   -2.2135357 
 3545000    1.1880953 -6.7068744e-05   0.48629124  0.023804116            0   0.46248712    1.7524406    2.2387318   -2.3398278 
 3550000    1.0653743 -3.9275837e-05   0.55615599     0.039691            0   0.51646499    1.5714271    2.1275831  -0.55364734 
 3555000    1.0330201 4.5172644e-05   0.68533919  0.042879474            0   0.64245971    1.5237046    2.2090438    5.2928297 
 3560000    1.0410014 1.8849456e-05   0.60245006  0.010595338            0   0.59185472     1.535477    2.1379271    3.4247166 
 3565000    1.0107654 -9.7489786e-06   0.67004228  0.040465373            0    0.6295769    1.4908789    2.1609212    1.4953909 
 3570000    1.1707897 1.593231e-05   0.49029117 0.00025306307            0   0.49003811    1.7269147    2.2172059    3.3048516 
 3575000    1.1559038 -4.202516e-05   0.45142478  0.031612531            0   0.41981225    1.7049582    2.1563829  -0.71253465 
 3580000    1.1469219 1.8995162e-05   0.57864082  0.079585669            0   0.49905516    1.6917098    2.2703506     3.567087 
 3585000    1.1226949 3.0917938e-05   0.66231376  0.042336013            0   0.61997774    1.6559749    2.3182887    4.4289532 
 3590000    1.1524984 2.7758108e-05   0.67533921 0.0075959723            0   0.66774324    1.6999352    2.3752744    4.2702279 
 3595000    1.1911701 -3.9388908e-05   0.62625302 0.0053372731            0   0.62091575     1.756976     2.383229  -0.30572049 
 3600000    1.3213669 6.9404037e-05   0.45593715  0.038863228            0   0.41707392    1.9490161    2.4049533    7.1429355 
 3605000    1.0507943 -2.3173203e-05   0.82926561  0.015767401            0   0.81349821    1.5499216    2.3791872    0.7972299 
 3610000    1.2258039 4.678596e-05   0.64743509 0.0037614488            0   0.64367364    1.8080607    2.4554958    5.6494173 
 3615000    1.1819649 -8.4767585e-05   0.62020849  0.019432628            0   0.60077586    1.7433982    2.3636067   -3.4231938 
 3620000    1.1297231 7.6539057e-05   0.71334319  0.012910569            0   0.70043262    1.6663416    2.3796848     7.604751 
 3625000    1.1378673 1.4899052e-05   0.76615233  0.045135816            0   0.72101651    1.6783543    2.4445066    3.4616153 
 3630000    1.2380646 -2.1287215e-05   0.64671456  0.011048472            0   0.63566609    1.8261453    2.4728598    1.0196526 
 3635000    1.0805736 5.4011271e-05   0.75324282  0.050730429            0   0.70251239     1.593846    2.3470888    6.0342583 
 3640000    1.1369601 -3.4473575e-06   0.71752504  0.024586721            0   0.69293832    1.6770162    2.3945412    2.1592016 
 3645000    1.1359744 8.4955545e-05   0.69638472  0.044585179            0   0.65179954    1.6755623     2.371947    8.1715789 
 3650000    1.2119551 6.2549607e-05   0.55697892  0.071000305            0   0.48597861    1.7876338    2.3446127    6.6146659 
 3655000    1.1805421 3.7339632e-05   0.62679464  0.013566453            0   0.61322819    1.7412996    2.3680943    4.9171465 
 3660000     1.136059 3.9524132e-05   0.59585318 0.0057988456            0   0.59005434    1.6756871    2.2715403     4.969721 
 3665000    1.0711197 9.539045e-05   0.66652773   0.03336541            0   0.63316232    1.5799016    2.2464293    8.7584174 
 3670000    1.1293481 -0.00018055916   0.61447055 0.0065468074            0   0.60792374    1.6657885     2.280259   -10.045913 
 3675000    1.1253786 5.9064066e-05   0.74300044  0.047694672            0   0.69530577    1.6599334    2.4029338    6.4350407 
 3680000     1.164308 -0.00013231108   0.78091126   0.10754229            0   0.67336897    1.7173543    2.4982656   -6.5341707 
 3685000    1.2330014 -4.532415e-05   0.71056344 0.0057999161            0   0.70476353     1.818677    2.5292405  -0.56488819 
 3690000    1.2833682 0.00010674755    0.5456657   0.01131901            0   0.53434669    1.8929681    2.4386338    9.7259331 
 3695000    1.1975192 -4.1009639e-05   0.48502498 0.0030818642            0   0.48194312    1.7663408    2.2513658  -0.54822555 
 3700000    1.0750502 -0.00015691252   0.79506112  0.031010773            0   0.76405035    1.5856991    2.3807602   -8.3311348 
 3705000      1.07419 -1.8129863e-05   0.66135562 0.0036233863            0   0.65773224    1.5844303    2.2457859    1.0081206 
 3710000    1.0548091 -5.539625e-05   0.66109852  0.021179658            0   0.63991887    1.5558434    2.2169419   -1.5647754 
 3715000    1.0974867 -4.9895617e-06   0.60444387  0.038011144            0   0.56643272    1.6187929    2.2232367     1.882616 
 3720000    1.0715337 0.00010703988   0.73881186  0.051391842            0   0.68742002    1.5805121     2.319324    9.6265796 
 3725000    1.2259804 1.1891372e-05   0.53233652  0.016163585            0   0.51617294    1.8083211    2.3406576    3.1524419 
 3730000    1.2089991 -4.1377098e-05   0.56845667 0.0019307854            0   0.56652589    1.7832737    2.3517303  -0.47294621 
 3735000     1.154952 9.5858107e-05   0.56735459  0.024804671            0   0.54254992    1.7035542    2.2709088    8.8148222 
 3740000     1.075734 -7.5821906e-05   0.74696011  0.025614884            0   0.72134523    1.5867077    2.3336678    -2.842441 
 3745000    1.1094009 -5.3839693e-05   0.66259772 0.0091099988            0   0.65348772    1.6363664    2.2989641   -1.3764923 
 3750000     1.006414 6.740643e-05   0.78131748  0.042587266            0   0.73873022    1.4844606    2.2657781    6.8673904 
 3755000    1.1513839 2.6122839e-06   0.61437661  0.011948478            0   0.60242814    1.6982912    2.3126678    2.4909998 
 3760000     1.116234 7.6836593e-05   0.59513885  0.011718797            0   0.58342005    1.6464451     2.241584    7.4869621 
 3765000    1.0558312 -2.904502e-05   0.64617395  0.045930795            0   0.60024315     1.557351    2.2035249   0.22071821 
 3770000    1.1504318 -7.5233027e-05   0.52122306  0.013457836            0   0.50776522    1.6968869    2.2181099    -2.917798 
 3775000    1.0390656 8.9115076e-05   0.68410741  0.082262011            0    0.6018454    1.5326217    2.2167291    8.3003183 
 3780000    1.0544558 5.408795e-05   0.52363452 0.00091746869            0   0.52271706    1.5553223    2.0789568    5.7713609 
 3785000    1.0512034 -4.1766535e-06   0.60321152  0.016139139            0   0.58707238     1.550525    2.1537365    1.8686103 
 3790000    1.2485788 5.8591469e-05   0.43794005 0.0095213517            0    0.4284187    1.8416537    2.2795938    6.2794381 
 3795000    1.1355006 5.5810894e-05   0.63214787  0.055795228            0   0.57635265    1.6748633    2.3070112    6.1170349 
 3800000     1.168216 2.6687156e-05   0.46407958  0.049131133            0   0.41494845    1.7231186    2.1871982    4.0090414 
 3805000    1.0888671 9.3662192e-05   0.57370011 0.00078027422            0   0.57291984     1.606079    2.1797791    8.5737847 
 3810000    1.1325446 -0.00011664564   0.57492209  0.038890139            0   0.53603195    1.6705032    2.2454253   -5.7175835 
 3815000    1.0668726 -0.00010566234   0.57750507  0.022621668            0   0.55488341    1.5736371    2.1511422   -5.0620735 
 3820000    1.1185448 -0.00015768226   0.53187863 0.00071937687            0   0.53115925    1.6498536    2.1817322   -8.5827098 
 3825000    1.2037962 8.4753567e-05   0.48998332  0.050493337            0   0.43948998    1.7755994    2.2655827    8.0514262 
 3830000    1.1213177 4.7750756e-05   0.56433508  0.017396003            0   0.54693908    1.6539435    2.2182786    5.4780636 
 3835000    1.1362986 -1.9082481e-05   0.54225473 0.0082320819            0   0.53402265    1.6760404    2.2182951    0.9155977 
 3840000    1.1547056 -4.6935885e-05   0.48048809 0.0088413305            0   0.47164676    1.7031908    2.1836789   -1.0204775 
 3845000    1.0170388 -0.00012614952   0.60925394  0.016856534            0   0.59239741    1.5001323    2.1093862   -6.5024213 
 3850000     1.106087 -1.971573e-05   0.49875428  0.014407904            0   0.48434638    1.6314784    2.1302327   0.78430549 
 3855000    1.1118514 -7.7772863e-05   0.52977637  0.058041541            0   0.47173483    1.6399808    2.1697572   -3.1395369 
 3860000    1.0709353 2.1162087e-05   0.62286653  0.020894771            0   0.60197175    1.5796296    2.2024962    3.6471613 
 3865000     1.129322 -3.3066784e-05   0.47274546  0.046269783            0   0.42647568    1.6657499    2.1384954   -0.1188637 
 3870000    1.0734382 4.8787016e-05   0.48708164  0.010661456            0   0.47642018    1.5833214     2.070403      5.40093 
 3875000    1.0908177 5.4151857e-05   0.40577372  0.013937499            0   0.39183622    1.6089561    2.0147299    5.7114967 
 3880000   0.93766763 -7.2777645e-05   0.66669292  0.014719766            0   0.65197315    1.3830598    2.0497527   -2.9185346 
 3885000     1.045331 -2.0846098e-05   0.50876044   0.09186902            0   0.41689142    1.5418632    2.0506237   0.62753002 
 3890000    1.0234887 -2.80198e-05   0.48081397  0.023601539            0   0.45721244    1.5096458    1.9904598  0.077641402 
 3895000    0.9819466 5.0360079e-05   0.54674931  0.011586235            0   0.53516307    1.4483712    1.9951205    5.4330353 
 3900000   0.97565119 8.6827002e-05    0.5244942  0.016435248            0   0.50805895    1.4390855    1.9635797    7.8909697 
 3905000   0.95173478 -5.3809174e-05   0.46218804 0.0081613203            0   0.45402672    1.4038088    1.8659968   -1.8073761 
 3910000   0.87519997 -2.5897963e-05   0.48557223  0.016241032            0    0.4693312      1.29092    1.7764922 0.0085245503 
 3915000   0.99951634 -7.7630293e-05   0.31037609  0.015949974            0   0.29442611    1.4742866    1.7846627   -3.5148986 
 3920000   0.88549084 -5.8466272e-05   0.51864464 0.0094150004            0   0.50922964     1.306099    1.8247436   -2.1665539 
 3925000   0.87757617 -2.8436737e-05   0.46567784  0.010138624            0   0.45553921    1.2944249    1.7601027  -0.18117855 
 3930000   0.91916093 -6.6831398e-05   0.47446816 0.0052811917            0   0.46918696    1.3557624    1.8302305   -2.7321263 
 3935000   0.99170532 8.2017657e-06   0.33225123  0.013376629            0    0.3188746    1.4627654    1.7950166    2.3549238 
 3940000   0.92585771 -6.1862124e-05   0.34577201  0.012379107            0    0.3333929    1.3656401    1.7114121   -2.5117088 
 3945000   0.91058511 -2.4631285e-05   0.42953697 0.0031713051            0   0.42636566     1.343113      1.77265  0.091154288 
 3950000   0.95129042 1.7937549e-05   0.38632831  0.036000236            0   0.35032808    1.4031534    1.7894817    3.0140184 
 3955000   0.93737504 -3.2723095e-05   0.47664306  0.030507269            0    0.4461358    1.3826282    1.8592712  -0.37462537 
 3960000    0.9896881 5.5162582e-05   0.34940494  0.025572141            0    0.3238328    1.4597899    1.8091949    5.5749605 
 3965000   0.85878279 2.1775201e-05   0.50411495  0.040970114            0   0.46314483    1.2667046    1.7708196      3.25734 
 3970000   0.89151366 -5.1047766e-05   0.50348786  0.008634724            0   0.49485314    1.3149827    1.8184705   -1.6663903 
 3975000   0.99855784 6.8709991e-06   0.44387203 0.0029440898            0   0.44092794    1.4728728    1.9167448    2.3858051 
 3980000    1.0102308 -0.00014033189   0.44476432  0.026788365            0   0.41797595    1.4900904    1.9348548   -7.6451354 
 3985000   0.98244528 4.2665535e-06   0.48990228 0.0076367599            0   0.48226552    1.4491068    1.9390091    2.2302725 
 3990000    1.0624775 6.0683744e-05   0.39926353  0.036494499            0   0.36276903    1.5671543    1.9664178    6.1090947 
 3995000   0.91696413 -8.2472106e-05   0.56715012  0.029337244            0   0.53781287    1.3525221    1.9196722   -3.7104236 
 4000000   0.97069662 -4.0927343e-05   0.49346883 0.0015428675            0   0.49192597    1.4317775    1.9252463  -0.86872693 
Loop time of 205.995 on 1 procs for 2000000 steps with 60 atoms

Performance: 838855.923 tau/day, 9708.981 timesteps/s
99.7% CPU use with 1 MPI tasks x no OpenMP threads

MPI task timing breakdown:
Section |  min time  |  avg time  |  max time  |%varavg| %total
---------------------------------------------------------------
Pair    | 0.73687    | 0.73687    | 0.73687    |   0.0 |  0.36
Bond    | 2.0335     | 2.0335     | 2.0335     |   0.0 |  0.99
Neigh   | 174.31     | 174.31     | 174.31     |   0.0 | 84.62
Comm    | 23.957     | 23.957     | 23.957     |   0.0 | 11.63
Output  | 0.038508   | 0.038508   | 0.038508   |   0.0 |  0.02
Modify  | 4.3165     | 4.3165     | 4.3165     |   0.0 |  2.10
Other   |            | 0.6061     |            |       |  0.29

Nlocal:        60.0000 ave          60 max          60 min
Histogram: 1 0 0 0 0 0 0 0 0 0
Nghost:        14.0000 ave          14 max          14 min
Histogram: 1 0 0 0 0 0 0 0 0 0
Neighs:        20.0000 ave          20 max          20 min
Histogram: 1 0 0 0 0 0 0 0 0 0

Total # of neighbors = 20
Ave neighs/atom = 0.33333333
Ave special neighs/atom = 5.8000000
Neighbor list builds = 38111
Dangerous builds = 0
write_restart restart.rerun.1
System init for write_restart ...
WARNING: Communication cutoff 1.4200000000000002 is shorter than a bond length based estimate of 1.8. This may lead to errors. (../comm.cpp:667)
#--------------End of Input file ------------------
Total wall time: 0:03:26
